ALGO = Normal
EDIFF = 1e-05
EMAX = 20
EMIN = -20.01
ENCUT = 400.0
IBRION = 2
ISIF = 0
ISMEAR = 0
KPAR = 1
LAECHG = True
LASPH = True
LCHARG = False
LORBIT = 11
LREAL = False
LVTOT = True
LWAVE = False
NBANDS = 34
NEDOS = 4002
NELM = 100
NSW = 1
PREC = Normal
SIGMA = 0.1
