Ga2 N2                                  
   1.00000000000000     
     3.1979216430608672   -0.0000000000001628    0.0000000000000000
    -1.5989608215807156    2.7694813822718829    0.0000000000000000
     0.0000000000000000    0.0000000000000000    5.2073407639416214
   Ga   N 
     2     2
Direct
  0.6666666667000030  0.3333333332999970  0.4991117006834886
  0.3333333332999970  0.6666666667000030  0.9991117006834886
  0.6666666667000030  0.3333333332999970  0.8758882993165114
  0.3333333332999970  0.6666666667000030  0.3758882993165114
 
  0.00000000E+00  0.00000000E+00  0.00000000E+00
  0.00000000E+00  0.00000000E+00  0.00000000E+00
  0.00000000E+00  0.00000000E+00  0.00000000E+00
  0.00000000E+00  0.00000000E+00  0.00000000E+00
