Num irrep kpoints: 14
0
Gamma
6 6 4
0.0 0.0 0.5
