Ga2 N2
1.0
   3.1889304035    0.0000000000    0.0000000000
  -1.5944652018    2.7616947404    0.0000000000
   0.0000000000    0.0000000000    5.1923572500
Ga N
2 2
direct
   0.6666666667    0.3333333333    0.4990837100 Ga
   0.3333333333    0.6666666667    0.9990837100 Ga
   0.6666666667    0.3333333333    0.8759162900 N
   0.3333333333    0.6666666667    0.3759162900 N
