Ga2 N2                                  
   1.00000000000000     
     3.1969218336999998    0.0000000000000000    0.0000000000000000
    -1.5984609168999999    2.7686155219000002    0.0000000000000000
     0.0000000000000000    0.0000000000000000    5.2051693969999997
   Ga   N 
     2     2
Direct
  0.3333333332999970  0.6666666667000030  0.9991372348999974
  0.6666666667000030  0.3333333332999970  0.4991372348999974
  0.3333333332999970  0.6666666667000030  0.3758627651000026
  0.6666666667000030  0.3333333332999970  0.8758627651000026
 
  0.00000000E+00  0.00000000E+00  0.00000000E+00
  0.00000000E+00  0.00000000E+00  0.00000000E+00
  0.00000000E+00  0.00000000E+00  0.00000000E+00
  0.00000000E+00  0.00000000E+00  0.00000000E+00
