Num irrep kpoints: 427
0
Gamma
24 24 14
0.0 0.0 0.5
