Ga2 N2
1.0
   3.1969218337    0.0000000000    0.0000000000
  -1.5984609169    2.7686155219    0.0000000000
   0.0000000000    0.0000000000    5.2051693970
Ga N
2 2
direct
   0.3333333333    0.6666666667    0.9991372349 Ga
   0.6666666667    0.3333333333    0.4991372349 Ga
   0.3333333333    0.6666666667    0.3758627651 N
   0.6666666667    0.3333333333    0.8758627651 N
