Ga2 N2                                  
   1.00000000000000     
     3.1969218337372918    0.0000000000000000    0.0000000000000000
    -1.5984609168686459    2.7686155219448536   -0.0000000000000000
     0.0000000000000000    0.0000000000000000    5.2051693970031074
   Ga   N 
     2     2
Direct
  0.3333333332999970  0.6666666667000030 -0.0008627651043192
  0.6666666667000030  0.3333333332999970  0.4991372348956808
  0.3333333332999970  0.6666666667000030  0.3758627651043192
  0.6666666667000030  0.3333333332999970  0.8758627651043193
 
  0.00000000E+00  0.00000000E+00  0.00000000E+00
  0.00000000E+00  0.00000000E+00  0.00000000E+00
  0.00000000E+00  0.00000000E+00  0.00000000E+00
  0.00000000E+00  0.00000000E+00  0.00000000E+00
