ALGO = Normal
EDIFF = 1e-09
EDIFFG = -0.005
ENCUT = 400.0
IBRION = 2
ISIF = 3
ISMEAR = 0
KPAR = 4
LASPH = True
LCHARG = False
LORBIT = 10
LREAL = False
LWAVE = False
NELM = 100
NSW = 20
PREC = Normal
SIGMA = 0.1
