Ga2 N2
1.0
   3.1800000668    0.0000000000    0.0000000000
  -1.5900000334    2.7539608419    0.0000000000
   0.0000000000    0.0000000000    5.1659998894
Ga N
2 2
direct
   0.3333333333    0.6666666667    0.0000000000 Ga
   0.6666666667    0.3333333333    0.5000000000 Ga
   0.3333333333    0.6666666667    0.3750000000 N
   0.6666666667    0.3333333333    0.8750000000 N
