Si2
1.0
   0.0000000000    2.7218511865    2.7218511865
   2.7218511865    0.0000000000    2.7218511865
   2.7218511865    2.7218511865    0.0000000000
Si
2
direct
   0.2500000000    0.2500000000    0.2500000000 Si
   0.0000000000    0.0000000000    0.0000000000 Si
