Mg2                                     
   1.00000000000000     
     3.2091928748456464    0.0000000000006778    0.0000000000000000
    -1.6045964373716504    2.7792425552272939    0.0000000000000000
    -0.0000000000000000   -0.0000000000000000    5.1254632481572404
   Mg
     2
Direct
  0.3333333332999970  0.6666666667000030  0.2500000000000000
  0.6666666667000030  0.3333333332999970  0.7500000000000000
 
  0.00000000E+00  0.00000000E+00  0.00000000E+00
  0.00000000E+00  0.00000000E+00  0.00000000E+00
