Mg2
1.0
   3.1720232863    0.0000000000    0.0000000000
  -1.5860116431    2.7470527473    0.0000000000
   0.0000000000    0.0000000000    5.1412049000
Mg
2
direct
   0.3333333333    0.6666666667    0.2500000000 Mg
   0.6666666667    0.3333333333    0.7500000000 Mg
