SYSTEM = GaN  # Descriptive name of the system
ISTART = 1                 # Job is started from the wavefuction of a previous (scf) calculation 
ICHARG = 11                 # Use a fixed electron charge density from a previous (scf) calculation 

ENCUT = 430                # Energy cutoff for plane waves

ISMEAR = 0                  # Gaussian smearing, good for insulators/semiconductors
SIGMA = 0.05                # Width of smearing in eV

EDIFF = 1E-9               # Energy convergence criterion
EDIFFG = -0.01             # Force convergence criterion, negative for ionic relaxation

IBRION = -1                 # No need for ionic relaxation

LCHARG = False              # do not write CHGCAR - large file size and we also does not need this info from bands calculation
LWAVE = False              # do not write WAVECAR - large file size and we also does not need this info from bands calculation

ISYM = 0                    # Do not apply symmetry operations, reduces computational burden

#LORBIT = 0; Default - Calculates Total DOS
#LORBIT = 10: Calculates DOS for all orbitals (s, p, d, and f). Total PDOS
#LORBIT = 11: Calculates DOS only for s orbitals.
#LORBIT = 12: Calculates DOS only for p orbitals.
#LORBIT = 13: Calculates DOS only for d orbitals.
#LORBIT = 14: Calculates DOS only for f orbitals.

#NEDOS default value is determined by the system
#NEDOS = 2000: Number of energy grid points used to calculate the DOS