Ga151 N150                              
   1.00000000000000     
    15.9846091686000005    0.0000000000000000    0.0000000000000000
    -7.9923045843000002   13.8430776094999999    0.0000000000000000
     0.0000000000000000    0.0000000000000000   15.6155081910000000
   Ga   N 
   151   150
Direct
  0.0001173009329273  0.0001326590788617  0.0799600070601016
  0.0675390722350326  0.1351163822092409  0.3356443132872137
  0.0670139016609175  0.1340483807453182  0.6650193203881871
  0.0686891740237704  0.1373707079119195 -0.0134672900565232
  0.0666640043179366  0.3341543230415792  0.3338391023837162
  0.0666534259321370  0.3340204645123283  0.6658838308269740
  0.0663512617452913  0.3344836596161389  0.9993979463195256
  0.0667071529681215  0.5334152531357215  0.3332424991019764
  0.0666532205661580  0.5333328326897749  0.6662223002836456
  0.0666896034657867  0.5334007429574888  0.9995421445653837
  0.0666190569126319  0.7326167626956471  0.3338434322036962
  0.0666628768427713  0.7326566200954530  0.6659199201777022
  0.0663006596922527  0.7319390960595265  0.9994466487448630
  0.0675150296076456  0.9325578369434827  0.3356419326411208
  0.0670180950570348  0.9329532233623680  0.6649673379134114
  0.0686208820483549  0.9313581377005478 -0.0134569537076894
  0.2698402072778561  0.1349566399945642  0.3363478895477012
  0.2681998777215803  0.1341004413958796  0.6648900534474759
  0.2692284439454378  0.1346448690331165  0.9983362322057551
  0.2674410091375513  0.3341459651922035  0.3338674504965431
  0.2673865722360785  0.3340477441830159  0.6659037038317220
  0.2681279778072900  0.3344424453398371  0.9994296509809277
  0.2667633786738742  0.5335460756751486  0.3332138389034134
  0.2667870748797920  0.5335551835323770  0.6662442151380100
  0.2668135512510695  0.5335971849413575  0.9995575294715388
  0.2667313336486890  0.7332718092809949  0.3332169830590582
  0.2667758120755938  0.7332291019662354  0.6662544942555875
  0.2667830847375917  0.7332305596278386  0.9995518427586401
  0.2674260019479952  0.9333742938905885  0.3338885278762838
  0.2673399895864889  0.9333172583956652  0.6659443388633450
  0.2680798757359170  0.9337083545645656  0.9994527416429281
  0.4672979616771466  0.1335958478704896  0.3333275440003343
  0.4671404268083192  0.1335442358166551  0.6663845781243337
  0.4673820881819238  0.1335356251391075  0.9993898772584101
  0.4673074508194335  0.3337629937007541  0.3333573359618139
  0.4671494126781152  0.3335941545869141  0.6664130184647672
  0.4674197036403879  0.3338510135074503  0.9994104487015282
  0.4666672659827518  0.5333920764320648  0.3332619379733621
  0.4666948668444495  0.5333337957009257  0.6662101252962179
  0.4666960708517415  0.5333631818676733  0.9995493173180781
  0.4665132510785152  0.7332954429951469  0.3332125407171632
  0.4664749938363630  0.7332271574226645  0.6662410323102669
  0.4664763233238518  0.7332516907824702  0.9995582895153683
  0.4666224664558533  0.9333264905218760  0.3332220162571150
  0.4666785133709930  0.9333428116490553  0.6661874204443387
  0.4666097822327573  0.9332948002903019  0.9994890830666774
  0.6662478821762863  0.1336209053559670  0.3332931510839069
  0.6663932776963361  0.1335521782486704  0.6663612832693231
  0.6661592763257692  0.1335864348745211  0.9993591616911248
  0.6666457453057056  0.3333790919342137  0.3332940994239919
  0.6666563123721764  0.3333223243992075  0.6662761829157046
  0.6666362429138486  0.3333378988288049  0.9995357988091894
  0.6662520483912905  0.5327510046905111  0.3333224431437180
  0.6663741882893625  0.5327954080587961  0.6664033050045070
  0.6661810142986097  0.5326127611438036  0.9993999998198975
  0.6659194786005453  0.7326241503121033  0.3338446863478290
  0.6660128970899430  0.7326707353943920  0.6659259039875335
  0.6656206292711950  0.7319247541913161  0.9994485550946389
  0.6659167289004195  0.9334151648754653  0.3338473651303105
  0.6660186892208059  0.9333319700418233  0.6659234378987173
  0.6655922947284606  0.9337326535823708  0.9994417040372063
  0.8650647444663403  0.1349723335761568  0.3363148595606187
  0.8659122254021056  0.1341072126593208  0.6648751436237912
  0.8654439350834657  0.1346661451172014  0.9982873312360470
  0.8664256772804280  0.3338014392543116  0.3333095073229429
  0.8664301328317904  0.3335880961557713  0.6663920503327292
  0.8664305346188177  0.3338968824449313  0.9993885384653142
  0.8664267556632845  0.5327549430732850  0.3333174886133240
  0.8664143158939074  0.5328143201980154  0.6664028583146137
  0.8664213908854933  0.5326229994626527  0.9993977207149712
  0.8650546093508374  0.7301918322413883  0.3363303918096356
  0.8658998055273741  0.7318030691117965  0.6648843866838177
  0.8653853251758565  0.7307944187353854 -0.0017279665394361
  0.8649579676696424  0.9325134552146174  0.3356487287094800
  0.8659634325711192  0.9329902739932457  0.6649120451492941
  0.8626516345883835  0.9313348996191830  0.9866717325817345
  0.1459577859474590  0.0730328403576239  0.1767107129356021
  0.1338452176327146  0.0669630787479370  0.5003224851878817
  0.1356964101825697  0.0678272613736615  0.8271853949010048
  0.1351125928900277  0.2702531250073138  0.1681113565960768
  0.1337879351093090  0.2675816578907770  0.5001363074612640
  0.1343466081339154  0.2686592567264186  0.8301624266957504
  0.1336027273882184  0.4673769509036808  0.1664781149410428
  0.1335720034017184  0.4670984742352930  0.4997700831962043
  0.1335181598791290  0.4671999182060524  0.8327849566133466
  0.1335952365914335  0.6663169964829531  0.1664830790460605
  0.1335785154285369  0.6665073571621819  0.4998152813446228
  0.1335131609707787  0.6663379869853900  0.8327767143300141
  0.1351120656785539  0.8649582261464844  0.1681550938995005
  0.1337715596878979  0.8662402884427293  0.5001199570931617
  0.1342941049533712  0.8656609943313671  0.8301898441700392
  0.3354216315253579  0.0667518740340092  0.1668106801504571
  0.3341973207558790  0.0665562617852476  0.5002159525019201
  0.3340184357864690  0.0668431062313088  0.8323842858108800
  0.3354281282689119  0.2687718808011439  0.1668113076027016
  0.3342063315071315  0.2676744487953682  0.5001833950938778
  0.3340201134266135  0.2671576870654856  0.8323869578262187
  0.3337063746433329  0.4673683592513634  0.1664923801515366
  0.3335452894279819  0.4671104572292825  0.4997836265142045
  0.3337098434926452  0.4672127869843339  0.8327915552142203
  0.3333606979564955  0.6667464665196502  0.1664214884381691
  0.3333494957775520  0.6666861467067786  0.4997798802368966
  0.3333743960676261  0.6666880073634063  0.8328639205695553
  0.3337295453513971  0.8664345893748657  0.1664657203027287
  0.3335191851843730  0.8664315053854679  0.4998007141855703
  0.3336690747242222  0.8664814543047885  0.8327635280133295
  0.5333399667546082  0.0666621927925050  0.1664078475078027
  0.5333168564875019  0.0666523134188862  0.4998297124687121
  0.5333184673435041  0.0666138649486399  0.8328119713172262
  0.5336935700492629  0.2668773243899208  0.1664478275480060
  0.5335366321793622  0.2667754617380845  0.4998594955214844
  0.5335214407866224  0.2667432664245418  0.8328455272229928
  0.5332836515404332  0.4667436688120575  0.1664478354299308
  0.5333333415822260  0.4666814670521646  0.4998578471141319
  0.5333268363683520  0.4666615851582226  0.8328411029266453
  0.5326945609507237  0.6663353505019606  0.1664865539015822
  0.5329201380562191  0.6665078693025134  0.4998093979854054
  0.5328940236166829  0.6663581994947695  0.8327616796818222
  0.5327160910572200  0.8664518411096936  0.1664563617209081
  0.5329090007090084  0.8664400542752633  0.4997876191127548
  0.5328846984384106  0.8665074873764184  0.8327439333464198
  0.7313435690643196  0.0667550723194464  0.1667794300447861
  0.7323396943096258  0.0665790969424334  0.5001757895642500
  0.7328606784762484  0.0668758692331727  0.8323681352493197
  0.7331319255607158  0.2668980238565814  0.1664350869635739
  0.7332188559983983  0.2667804514475878  0.4998312961424667
  0.7332078940919008  0.2667600114773610  0.8328101962360737
  0.7330986372361695  0.4662784356235492  0.1664546861999056
  0.7332214090645414  0.4664802152106041  0.4998460715377593
  0.7331948024870848  0.4663903133244656  0.8328256316447262
  0.7313157807499638  0.6646298605414672  0.1667879684404160
  0.7323134137335084  0.6657832074613494  0.5002382298113287
  0.7328405515476384  0.6659260959013987  0.8323440505708076
  0.7298416262487987  0.8649521470569426  0.1681727683710630
  0.7324395762917169  0.8662484490437700  0.5000810481818854
  0.7314385093891368  0.8656972046332402  0.8302113164252217
  0.9270820785170735  0.0730192112325916  0.1766909008752830
  0.9330925394225648  0.0669823510243227  0.5002668430783556
  0.9321588353504122  0.0678141028216656  0.8272324282422245
  0.9333140315900347  0.2687335822733468  0.1667796500041610
  0.9334478941251402  0.2676882555202851  0.5001491769581434
  0.9331325289987374  0.2671626581971520  0.8323721389134080
  0.9333931990065650  0.4666957134618525  0.1664325579278431
  0.9333317482685195  0.4666924504058800  0.4998311115762864
  0.9333338677602945  0.4666620371977169  0.8328420424723220
  0.9332483050322904  0.6645690463154766  0.1667842229321376
  0.9334379403144301  0.6658041270424739  0.5002397759898978
  0.9331085289369258  0.6659412250094414  0.8323352164158475
  0.9270897980400385  0.8541726115807327  0.1766349755119173
  0.9330716030304087  0.8661711147341424  0.5003058394666896
  0.9321462124615071  0.8643294305090520  0.8272582303349539
  0.0668464067555990  0.1337527717730126  0.1311711716910300
  0.0668636660895902  0.1337273523569426  0.4601755514742402
  0.0671301110778485  0.1342255284787750  0.7908213355616810
  0.0664976499112482  0.3334204459537023  0.1250962771580288
  0.0666313946182999  0.3335958770992467  0.4589283766654853
  0.0664362530828093  0.3339157574764706  0.7914168432247348
  0.0665615673929530  0.5333208292607412  0.1251064012789331
  0.0666074471103655  0.5333247886680118  0.4585944146747992
  0.0665714823903501  0.5332985451227302  0.7917550669647957
  0.0664662114565043  0.7331583282257840  0.1251580211353558
  0.0666091434104034  0.7330628121179552  0.4589399035380985
  0.0664180850468064  0.7324944161224385  0.7914313576093391
  0.0669061324693199  0.9332735393260262  0.1311237584332038
  0.0668359651840718  0.9332016164229281  0.4601870305317181
  0.0671072026170682  0.9328955039443781  0.7907898919964151
  0.2700410149710937  0.1350828520172235  0.1247649099836525
  0.2676747119902459  0.1338540473181201  0.4604990631655477
  0.2690539367044518  0.1345302934715415  0.7898024297428999
  0.2668924316994625  0.3334137103073698  0.1251190073167212
  0.2669630115398807  0.3336115916824257  0.4589526669061131
  0.2675131939538294  0.3339465917693076  0.7914251728103443
  0.2666631610417467  0.5333692460728485  0.1251649359439120
  0.2667326104241453  0.5334502298057802  0.4585593259706544
  0.2667225774993167  0.5334144962594725  0.7918046809819529
  0.2666474093075061  0.7333902609375376  0.1251463204489325
  0.2667230991366479  0.7332971718758847  0.4585664319229890
  0.2667041240501887  0.7332927474089105  0.7918088608997905
  0.2668875680283767  0.9335583595618270  0.1251465377460862
  0.2669562284429212  0.9333833305893799  0.4589670114368453
  0.2674608302863364  0.9335450092575512  0.7914516911146225
  0.4673592451167184  0.1336494178220958  0.1250143203603877
  0.4670063384411657  0.1335402055944411  0.4585800465402638
  0.4670745334476455  0.1334983936788515  0.7918312657591484
  0.4673684855828043  0.3338031316891465  0.1250225278819466
  0.4670200746430453  0.3335001700686545  0.4585921533958233
  0.4670800603287438  0.3335608984792593  0.7918583847767585
  0.4667073503807866  0.5333336412124808  0.1251098949945097
  0.4667121069765272  0.5333217819794566  0.4586011656086524
  0.4667585963806188  0.5333237641917663  0.7917484886435726
  0.4667213970269027  0.7333993102558911  0.1251413728424103
  0.4665667346864006  0.7332986721696362  0.4585644141609426
  0.4666612500952746  0.7333107154944993  0.7917966883255667
  0.4667355131016861  0.9334751108116732  0.1250656946918016
  0.4666764813598682  0.9333911304274762  0.4585730483483149
  0.4667170595245649  0.9333766873643005  0.7917197320393556
  0.6662828559116079  0.1336592588956046  0.1249903793031819
  0.6664988792009663  0.1335547327010611  0.4585421269228466
  0.6664368542376989  0.1335059578394789  0.7918122304581811
  0.6666408880902048  0.3333437284415235  0.1250938103255944
  0.6666604470026565  0.3333509138016106  0.4586272264306258
  0.6666322043957997  0.3332971458918600  0.7917551706953603
  0.6662254413972939  0.5326580743905288  0.1250153311183382
  0.6665039326080359  0.5329926036268950  0.4585732224901761
  0.6664168841214317  0.5328601670367964  0.7918405546987968
  0.6666523023152426  0.7331760512268995  0.1251338852136733
  0.6664237105015901  0.7330594018660965  0.4589454552148356
  0.6661309423177348  0.7325297967290492  0.7914402124605527
  0.6666745918109515  0.9335579818496074  0.1251203832360755
  0.6664110203993701  0.9334072139615820  0.4589403430631148
  0.6661493006345280  0.9335624507102782  0.7914438124980265
  0.8650447014070684  0.1350268702295049  0.1247393102807521
  0.8661570739272504  0.1338725891694417  0.4604749905000470
  0.8655146621591804  0.1345152092903687  0.7898044824770513
  0.8663749748810015  0.3337601003276500  0.1250091721289244
  0.8664528690656591  0.3335102704380055  0.4585506156153473
  0.8664601698439505  0.3335495921720724  0.7918408745689735
  0.8663375447159228  0.5326073987697103  0.1250181889640587
  0.8664513287955035  0.5330089465020312  0.4585754397647371
  0.8664299975700374  0.5328666329573091  0.7918425148230679
  0.8650105806227548  0.7300547301232496  0.1247147685518208
  0.8661408465534458  0.7323343560722440  0.4605161440672055
  0.8654697201278492  0.7309535171511740  0.7898165757375982
  0.8663716993547265  0.9332282742811859  0.1310882971958139
  0.8663402917810697  0.9331983471031833  0.4601897933980438
  0.8658003532920658  0.9329101732016235  0.7907299654768553
  0.1348831857872571  0.0675021511851498  0.2979022564528600
  0.1338234794368163  0.0669120927894776  0.6256120983253984
  0.1390795893718037  0.0695538385705821  0.9521468596884377
  0.1337311552533741  0.2674917009021128  0.2931675051976232
  0.1337693625876781  0.2675104234331190  0.6253878646631459
  0.1349858319125463  0.2699497712723679  0.9567433360937356
  0.1334051193175213  0.4668572044703599  0.2919156761828682
  0.1335807883684135  0.4670651439728011  0.6251129270749737
  0.1335558602408719  0.4671169631545224  0.9583978322295611
  0.1333722446753943  0.6666685754606803  0.2919141789507462
  0.1335629050796072  0.6665260283985033  0.6251489702502421
  0.1335260320864430  0.6665366137394765  0.9583918366352092
  0.1337055468115072  0.8663620649775557  0.2932172526378271
  0.1337477036238868  0.8662422988410786  0.6253692479037923
  0.1349240420049828  0.8650621898543854  0.9567547387430289
  0.3335401619159227  0.0667228276576965  0.2922779150655944
  0.3339570962739770  0.0664920289463519  0.6251485848987898
  0.3341892454391580  0.0666292286615111  0.9582328744232066
  0.3335623288531847  0.2669036057065343  0.2922858311094310
  0.3339901553189081  0.2674681612482646  0.6251172403406479
  0.3342341771472460  0.2676219160783181  0.9582321698035572
  0.3334189371746302  0.4668404168545042  0.2919271898672556
  0.3335167102577730  0.4670784694610538  0.6251174971353558
  0.3335758164482228  0.4670930112491831  0.9584068169776089
  0.3333395182483748  0.6667103808934307  0.2919065463234503
  0.3333507474801692  0.6666757820561829  0.6251757929445964
  0.3333850966955492  0.6667100681212536  0.9584535846613508
  0.3333647613093221  0.8666325382364140  0.2919046983500510
  0.3334850710535216  0.8664392386478309  0.6251313418971598
  0.3334811250518687  0.8664663487796610  0.9583822013815467
  0.5332545013577211  0.0665635648676930  0.2918489748621552
  0.5333104195975285  0.0666257508708981  0.6252171548909525
  0.5332304594523516  0.0664433235707668  0.9583694853970640
  0.5333822948407069  0.2667248837325729  0.2919367332438853
  0.5334145298285167  0.2667056453810397  0.6252278096060558
  0.5334252567924886  0.2667044301367202  0.9584647480226255
  0.5332547459646479  0.4667526260709458  0.2918714286961064
  0.5333090437056668  0.4666707977954651  0.6252448693235187
  0.5332827552570157  0.4667964502279165  0.9583917918221788
  0.5332215373139163  0.6666366528827417  0.2919078632432053
  0.5329844058944778  0.6665262165782606  0.6251553638990832
  0.5330075822219521  0.6665091259689380  0.9583860396736513
  0.5332141974499496  0.8666616043854820  0.2918941240679810
  0.5329833994966073  0.8664383739246380  0.6251348192632336
  0.5329724549955313  0.8664941441667481  0.9583727567541818
  0.7331497020717399  0.0667678433542033  0.2922246370271313
  0.7325308230558941  0.0664985291553422  0.6251293431670993
  0.7324649661820211  0.0666543421954504  0.9582214467606227
  0.7332930201570510  0.2667626359946253  0.2919161075644325
  0.7332798167395814  0.2667064255420938  0.6251994229873946
  0.7332735227584228  0.2667467753197061  0.9584319430497097
  0.7332840398671679  0.4666460896666590  0.2919301049214855
  0.7332749385248756  0.4665636119191789  0.6252166679320829
  0.7332684332860713  0.4665629951495212  0.9584330617745144
  0.7331477998330254  0.6664970760003446  0.2922389194753142
  0.7325054867702442  0.6659834298110766  0.6251864449359112
  0.7324486650890695  0.6658399800891152  0.9582096776197713
  0.7325898185991440  0.8663514717662756  0.2932068976539954
  0.7325116212706378  0.8662399765120632  0.6253336809999023
  0.7300666807693437  0.8650457643867806  0.9567605502758163
  0.9325508370027445  0.0674808564005347  0.2979151388531189
  0.9330905144736913  0.0669266027436262  0.6255553868238927
  0.9304852445434660  0.0695174831951523  0.9521668321069704
  0.9333018173832788  0.2669156183274630  0.2922476923268402
  0.9334800792660032  0.2674738255577619  0.6250888098131110
  0.9333931165923239  0.2676350895911681  0.9582184049617181
  0.9334694237636861  0.4667925318085909  0.2918623020180908
  0.9333604151228286  0.4666780027603585  0.6252296821771038
  0.9335312646638168  0.4668255986388302  0.9583959030444713
  0.9332707946222348  0.6664977679386414  0.2922390253837498
  0.9334793356623330  0.6660018393052297  0.6251774715672590
  0.9333652794742437  0.6658515364730445  0.9582018553562806
  0.9325313786184705  0.8651233690961692  0.2978442733120525
  0.9330726221682359  0.8661480794211159  0.6255675812700815
  0.9304641812083579  0.8610380255480284  0.9521815571158979
 
  0.00000000E+00  0.00000000E+00  0.00000000E+00
  0.00000000E+00  0.00000000E+00  0.00000000E+00
  0.00000000E+00  0.00000000E+00  0.00000000E+00
  0.00000000E+00  0.00000000E+00  0.00000000E+00
  0.00000000E+00  0.00000000E+00  0.00000000E+00
  0.00000000E+00  0.00000000E+00  0.00000000E+00
  0.00000000E+00  0.00000000E+00  0.00000000E+00
  0.00000000E+00  0.00000000E+00  0.00000000E+00
  0.00000000E+00  0.00000000E+00  0.00000000E+00
  0.00000000E+00  0.00000000E+00  0.00000000E+00
  0.00000000E+00  0.00000000E+00  0.00000000E+00
  0.00000000E+00  0.00000000E+00  0.00000000E+00
  0.00000000E+00  0.00000000E+00  0.00000000E+00
  0.00000000E+00  0.00000000E+00  0.00000000E+00
  0.00000000E+00  0.00000000E+00  0.00000000E+00
  0.00000000E+00  0.00000000E+00  0.00000000E+00
  0.00000000E+00  0.00000000E+00  0.00000000E+00
  0.00000000E+00  0.00000000E+00  0.00000000E+00
  0.00000000E+00  0.00000000E+00  0.00000000E+00
  0.00000000E+00  0.00000000E+00  0.00000000E+00
  0.00000000E+00  0.00000000E+00  0.00000000E+00
  0.00000000E+00  0.00000000E+00  0.00000000E+00
  0.00000000E+00  0.00000000E+00  0.00000000E+00
  0.00000000E+00  0.00000000E+00  0.00000000E+00
  0.00000000E+00  0.00000000E+00  0.00000000E+00
  0.00000000E+00  0.00000000E+00  0.00000000E+00
  0.00000000E+00  0.00000000E+00  0.00000000E+00
  0.00000000E+00  0.00000000E+00  0.00000000E+00
  0.00000000E+00  0.00000000E+00  0.00000000E+00
  0.00000000E+00  0.00000000E+00  0.00000000E+00
  0.00000000E+00  0.00000000E+00  0.00000000E+00
  0.00000000E+00  0.00000000E+00  0.00000000E+00
  0.00000000E+00  0.00000000E+00  0.00000000E+00
  0.00000000E+00  0.00000000E+00  0.00000000E+00
  0.00000000E+00  0.00000000E+00  0.00000000E+00
  0.00000000E+00  0.00000000E+00  0.00000000E+00
  0.00000000E+00  0.00000000E+00  0.00000000E+00
  0.00000000E+00  0.00000000E+00  0.00000000E+00
  0.00000000E+00  0.00000000E+00  0.00000000E+00
  0.00000000E+00  0.00000000E+00  0.00000000E+00
  0.00000000E+00  0.00000000E+00  0.00000000E+00
  0.00000000E+00  0.00000000E+00  0.00000000E+00
  0.00000000E+00  0.00000000E+00  0.00000000E+00
  0.00000000E+00  0.00000000E+00  0.00000000E+00
  0.00000000E+00  0.00000000E+00  0.00000000E+00
  0.00000000E+00  0.00000000E+00  0.00000000E+00
  0.00000000E+00  0.00000000E+00  0.00000000E+00
  0.00000000E+00  0.00000000E+00  0.00000000E+00
  0.00000000E+00  0.00000000E+00  0.00000000E+00
  0.00000000E+00  0.00000000E+00  0.00000000E+00
  0.00000000E+00  0.00000000E+00  0.00000000E+00
  0.00000000E+00  0.00000000E+00  0.00000000E+00
  0.00000000E+00  0.00000000E+00  0.00000000E+00
  0.00000000E+00  0.00000000E+00  0.00000000E+00
  0.00000000E+00  0.00000000E+00  0.00000000E+00
  0.00000000E+00  0.00000000E+00  0.00000000E+00
  0.00000000E+00  0.00000000E+00  0.00000000E+00
  0.00000000E+00  0.00000000E+00  0.00000000E+00
  0.00000000E+00  0.00000000E+00  0.00000000E+00
  0.00000000E+00  0.00000000E+00  0.00000000E+00
  0.00000000E+00  0.00000000E+00  0.00000000E+00
  0.00000000E+00  0.00000000E+00  0.00000000E+00
  0.00000000E+00  0.00000000E+00  0.00000000E+00
  0.00000000E+00  0.00000000E+00  0.00000000E+00
  0.00000000E+00  0.00000000E+00  0.00000000E+00
  0.00000000E+00  0.00000000E+00  0.00000000E+00
  0.00000000E+00  0.00000000E+00  0.00000000E+00
  0.00000000E+00  0.00000000E+00  0.00000000E+00
  0.00000000E+00  0.00000000E+00  0.00000000E+00
  0.00000000E+00  0.00000000E+00  0.00000000E+00
  0.00000000E+00  0.00000000E+00  0.00000000E+00
  0.00000000E+00  0.00000000E+00  0.00000000E+00
  0.00000000E+00  0.00000000E+00  0.00000000E+00
  0.00000000E+00  0.00000000E+00  0.00000000E+00
  0.00000000E+00  0.00000000E+00  0.00000000E+00
  0.00000000E+00  0.00000000E+00  0.00000000E+00
  0.00000000E+00  0.00000000E+00  0.00000000E+00
  0.00000000E+00  0.00000000E+00  0.00000000E+00
  0.00000000E+00  0.00000000E+00  0.00000000E+00
  0.00000000E+00  0.00000000E+00  0.00000000E+00
  0.00000000E+00  0.00000000E+00  0.00000000E+00
  0.00000000E+00  0.00000000E+00  0.00000000E+00
  0.00000000E+00  0.00000000E+00  0.00000000E+00
  0.00000000E+00  0.00000000E+00  0.00000000E+00
  0.00000000E+00  0.00000000E+00  0.00000000E+00
  0.00000000E+00  0.00000000E+00  0.00000000E+00
  0.00000000E+00  0.00000000E+00  0.00000000E+00
  0.00000000E+00  0.00000000E+00  0.00000000E+00
  0.00000000E+00  0.00000000E+00  0.00000000E+00
  0.00000000E+00  0.00000000E+00  0.00000000E+00
  0.00000000E+00  0.00000000E+00  0.00000000E+00
  0.00000000E+00  0.00000000E+00  0.00000000E+00
  0.00000000E+00  0.00000000E+00  0.00000000E+00
  0.00000000E+00  0.00000000E+00  0.00000000E+00
  0.00000000E+00  0.00000000E+00  0.00000000E+00
  0.00000000E+00  0.00000000E+00  0.00000000E+00
  0.00000000E+00  0.00000000E+00  0.00000000E+00
  0.00000000E+00  0.00000000E+00  0.00000000E+00
  0.00000000E+00  0.00000000E+00  0.00000000E+00
  0.00000000E+00  0.00000000E+00  0.00000000E+00
  0.00000000E+00  0.00000000E+00  0.00000000E+00
  0.00000000E+00  0.00000000E+00  0.00000000E+00
  0.00000000E+00  0.00000000E+00  0.00000000E+00
  0.00000000E+00  0.00000000E+00  0.00000000E+00
  0.00000000E+00  0.00000000E+00  0.00000000E+00
  0.00000000E+00  0.00000000E+00  0.00000000E+00
  0.00000000E+00  0.00000000E+00  0.00000000E+00
  0.00000000E+00  0.00000000E+00  0.00000000E+00
  0.00000000E+00  0.00000000E+00  0.00000000E+00
  0.00000000E+00  0.00000000E+00  0.00000000E+00
  0.00000000E+00  0.00000000E+00  0.00000000E+00
  0.00000000E+00  0.00000000E+00  0.00000000E+00
  0.00000000E+00  0.00000000E+00  0.00000000E+00
  0.00000000E+00  0.00000000E+00  0.00000000E+00
  0.00000000E+00  0.00000000E+00  0.00000000E+00
  0.00000000E+00  0.00000000E+00  0.00000000E+00
  0.00000000E+00  0.00000000E+00  0.00000000E+00
  0.00000000E+00  0.00000000E+00  0.00000000E+00
  0.00000000E+00  0.00000000E+00  0.00000000E+00
  0.00000000E+00  0.00000000E+00  0.00000000E+00
  0.00000000E+00  0.00000000E+00  0.00000000E+00
  0.00000000E+00  0.00000000E+00  0.00000000E+00
  0.00000000E+00  0.00000000E+00  0.00000000E+00
  0.00000000E+00  0.00000000E+00  0.00000000E+00
  0.00000000E+00  0.00000000E+00  0.00000000E+00
  0.00000000E+00  0.00000000E+00  0.00000000E+00
  0.00000000E+00  0.00000000E+00  0.00000000E+00
  0.00000000E+00  0.00000000E+00  0.00000000E+00
  0.00000000E+00  0.00000000E+00  0.00000000E+00
  0.00000000E+00  0.00000000E+00  0.00000000E+00
  0.00000000E+00  0.00000000E+00  0.00000000E+00
  0.00000000E+00  0.00000000E+00  0.00000000E+00
  0.00000000E+00  0.00000000E+00  0.00000000E+00
  0.00000000E+00  0.00000000E+00  0.00000000E+00
  0.00000000E+00  0.00000000E+00  0.00000000E+00
  0.00000000E+00  0.00000000E+00  0.00000000E+00
  0.00000000E+00  0.00000000E+00  0.00000000E+00
  0.00000000E+00  0.00000000E+00  0.00000000E+00
  0.00000000E+00  0.00000000E+00  0.00000000E+00
  0.00000000E+00  0.00000000E+00  0.00000000E+00
  0.00000000E+00  0.00000000E+00  0.00000000E+00
  0.00000000E+00  0.00000000E+00  0.00000000E+00
  0.00000000E+00  0.00000000E+00  0.00000000E+00
  0.00000000E+00  0.00000000E+00  0.00000000E+00
  0.00000000E+00  0.00000000E+00  0.00000000E+00
  0.00000000E+00  0.00000000E+00  0.00000000E+00
  0.00000000E+00  0.00000000E+00  0.00000000E+00
  0.00000000E+00  0.00000000E+00  0.00000000E+00
  0.00000000E+00  0.00000000E+00  0.00000000E+00
  0.00000000E+00  0.00000000E+00  0.00000000E+00
  0.00000000E+00  0.00000000E+00  0.00000000E+00
  0.00000000E+00  0.00000000E+00  0.00000000E+00
  0.00000000E+00  0.00000000E+00  0.00000000E+00
  0.00000000E+00  0.00000000E+00  0.00000000E+00
  0.00000000E+00  0.00000000E+00  0.00000000E+00
  0.00000000E+00  0.00000000E+00  0.00000000E+00
  0.00000000E+00  0.00000000E+00  0.00000000E+00
  0.00000000E+00  0.00000000E+00  0.00000000E+00
  0.00000000E+00  0.00000000E+00  0.00000000E+00
  0.00000000E+00  0.00000000E+00  0.00000000E+00
  0.00000000E+00  0.00000000E+00  0.00000000E+00
  0.00000000E+00  0.00000000E+00  0.00000000E+00
  0.00000000E+00  0.00000000E+00  0.00000000E+00
  0.00000000E+00  0.00000000E+00  0.00000000E+00
  0.00000000E+00  0.00000000E+00  0.00000000E+00
  0.00000000E+00  0.00000000E+00  0.00000000E+00
  0.00000000E+00  0.00000000E+00  0.00000000E+00
  0.00000000E+00  0.00000000E+00  0.00000000E+00
  0.00000000E+00  0.00000000E+00  0.00000000E+00
  0.00000000E+00  0.00000000E+00  0.00000000E+00
  0.00000000E+00  0.00000000E+00  0.00000000E+00
  0.00000000E+00  0.00000000E+00  0.00000000E+00
  0.00000000E+00  0.00000000E+00  0.00000000E+00
  0.00000000E+00  0.00000000E+00  0.00000000E+00
  0.00000000E+00  0.00000000E+00  0.00000000E+00
  0.00000000E+00  0.00000000E+00  0.00000000E+00
  0.00000000E+00  0.00000000E+00  0.00000000E+00
  0.00000000E+00  0.00000000E+00  0.00000000E+00
  0.00000000E+00  0.00000000E+00  0.00000000E+00
  0.00000000E+00  0.00000000E+00  0.00000000E+00
  0.00000000E+00  0.00000000E+00  0.00000000E+00
  0.00000000E+00  0.00000000E+00  0.00000000E+00
  0.00000000E+00  0.00000000E+00  0.00000000E+00
  0.00000000E+00  0.00000000E+00  0.00000000E+00
  0.00000000E+00  0.00000000E+00  0.00000000E+00
  0.00000000E+00  0.00000000E+00  0.00000000E+00
  0.00000000E+00  0.00000000E+00  0.00000000E+00
  0.00000000E+00  0.00000000E+00  0.00000000E+00
  0.00000000E+00  0.00000000E+00  0.00000000E+00
  0.00000000E+00  0.00000000E+00  0.00000000E+00
  0.00000000E+00  0.00000000E+00  0.00000000E+00
  0.00000000E+00  0.00000000E+00  0.00000000E+00
  0.00000000E+00  0.00000000E+00  0.00000000E+00
  0.00000000E+00  0.00000000E+00  0.00000000E+00
  0.00000000E+00  0.00000000E+00  0.00000000E+00
  0.00000000E+00  0.00000000E+00  0.00000000E+00
  0.00000000E+00  0.00000000E+00  0.00000000E+00
  0.00000000E+00  0.00000000E+00  0.00000000E+00
  0.00000000E+00  0.00000000E+00  0.00000000E+00
  0.00000000E+00  0.00000000E+00  0.00000000E+00
  0.00000000E+00  0.00000000E+00  0.00000000E+00
  0.00000000E+00  0.00000000E+00  0.00000000E+00
  0.00000000E+00  0.00000000E+00  0.00000000E+00
  0.00000000E+00  0.00000000E+00  0.00000000E+00
  0.00000000E+00  0.00000000E+00  0.00000000E+00
  0.00000000E+00  0.00000000E+00  0.00000000E+00
  0.00000000E+00  0.00000000E+00  0.00000000E+00
  0.00000000E+00  0.00000000E+00  0.00000000E+00
  0.00000000E+00  0.00000000E+00  0.00000000E+00
  0.00000000E+00  0.00000000E+00  0.00000000E+00
  0.00000000E+00  0.00000000E+00  0.00000000E+00
  0.00000000E+00  0.00000000E+00  0.00000000E+00
  0.00000000E+00  0.00000000E+00  0.00000000E+00
  0.00000000E+00  0.00000000E+00  0.00000000E+00
  0.00000000E+00  0.00000000E+00  0.00000000E+00
  0.00000000E+00  0.00000000E+00  0.00000000E+00
  0.00000000E+00  0.00000000E+00  0.00000000E+00
  0.00000000E+00  0.00000000E+00  0.00000000E+00
  0.00000000E+00  0.00000000E+00  0.00000000E+00
  0.00000000E+00  0.00000000E+00  0.00000000E+00
  0.00000000E+00  0.00000000E+00  0.00000000E+00
  0.00000000E+00  0.00000000E+00  0.00000000E+00
  0.00000000E+00  0.00000000E+00  0.00000000E+00
  0.00000000E+00  0.00000000E+00  0.00000000E+00
  0.00000000E+00  0.00000000E+00  0.00000000E+00
  0.00000000E+00  0.00000000E+00  0.00000000E+00
  0.00000000E+00  0.00000000E+00  0.00000000E+00
  0.00000000E+00  0.00000000E+00  0.00000000E+00
  0.00000000E+00  0.00000000E+00  0.00000000E+00
  0.00000000E+00  0.00000000E+00  0.00000000E+00
  0.00000000E+00  0.00000000E+00  0.00000000E+00