Ga151 N150
1.0
  15.9846091686    0.0000000000    0.0000000000
  -7.9923045843   13.8430776095    0.0000000000
   0.0000000000    0.0000000000   15.6155081910
Ga N
151 150
direct
   0.0000000000    0.0000000000    0.0654761905 Ga
   0.0666666667    0.1333333333    0.3330457450 Ga
   0.0666666667    0.1333333333    0.6663790783 Ga
   0.0662281053    0.1346541238    0.0038528914 Ga
   0.0666666667    0.3333333333    0.3330457450 Ga
   0.0666666667    0.3333333333    0.6663790783 Ga
   0.0666666667    0.3333333333    0.9997124116 Ga
   0.0666666667    0.5333333333    0.3330457450 Ga
   0.0666666667    0.5333333333    0.6663790783 Ga
   0.0666666667    0.5333333333    0.9997124116 Ga
   0.0666666667    0.7333333333    0.3330457450 Ga
   0.0666666667    0.7333333333    0.6663790783 Ga
   0.0666666667    0.7333333333    0.9997124116 Ga
   0.0666666667    0.9333333333    0.3330457450 Ga
   0.0666666667    0.9333333333    0.6663790783 Ga
   0.0638628219    0.9308175768    0.0009159128 Ga
   0.2666666667    0.1333333333    0.3330457450 Ga
   0.2666666667    0.1333333333    0.6663790783 Ga
   0.2666666667    0.1333333333    0.9997124116 Ga
   0.2666666667    0.3333333333    0.3330457450 Ga
   0.2666666667    0.3333333333    0.6663790783 Ga
   0.2666666667    0.3333333333    0.9997124116 Ga
   0.2666666667    0.5333333333    0.3330457450 Ga
   0.2666666667    0.5333333333    0.6663790783 Ga
   0.2666666667    0.5333333333    0.9997124116 Ga
   0.2666666667    0.7333333333    0.3330457450 Ga
   0.2666666667    0.7333333333    0.6663790783 Ga
   0.2666666667    0.7333333333    0.9997124116 Ga
   0.2666666667    0.9333333333    0.3330457450 Ga
   0.2666666667    0.9333333333    0.6663790783 Ga
   0.2666666667    0.9333333333    0.9997124116 Ga
   0.4666666667    0.1333333333    0.3330457450 Ga
   0.4666666667    0.1333333333    0.6663790783 Ga
   0.4666666667    0.1333333333    0.9997124116 Ga
   0.4666666667    0.3333333333    0.3330457450 Ga
   0.4666666667    0.3333333333    0.6663790783 Ga
   0.4666666667    0.3333333333    0.9997124116 Ga
   0.4666666667    0.5333333333    0.3330457450 Ga
   0.4666666667    0.5333333333    0.6663790783 Ga
   0.4666666667    0.5333333333    0.9997124116 Ga
   0.4666666667    0.7333333333    0.3330457450 Ga
   0.4666666667    0.7333333333    0.6663790783 Ga
   0.4666666667    0.7333333333    0.9997124116 Ga
   0.4666666667    0.9333333333    0.3330457450 Ga
   0.4666666667    0.9333333333    0.6663790783 Ga
   0.4666666667    0.9333333333    0.9997124116 Ga
   0.6666666667    0.1333333333    0.3330457450 Ga
   0.6666666667    0.1333333333    0.6663790783 Ga
   0.6666666667    0.1333333333    0.9997124116 Ga
   0.6666666667    0.3333333333    0.3330457450 Ga
   0.6666666667    0.3333333333    0.6663790783 Ga
   0.6666666667    0.3333333333    0.9997124116 Ga
   0.6666666667    0.5333333333    0.3330457450 Ga
   0.6666666667    0.5333333333    0.6663790783 Ga
   0.6666666667    0.5333333333    0.9997124116 Ga
   0.6666666667    0.7333333333    0.3330457450 Ga
   0.6666666667    0.7333333333    0.6663790783 Ga
   0.6666666667    0.7333333333    0.9997124116 Ga
   0.6666666667    0.9333333333    0.3330457450 Ga
   0.6666666667    0.9333333333    0.6663790783 Ga
   0.6666666667    0.9333333333    0.9997124116 Ga
   0.8666666667    0.1333333333    0.3330457450 Ga
   0.8666666667    0.1333333333    0.6663790783 Ga
   0.8666666667    0.1333333333    0.9997124116 Ga
   0.8666666667    0.3333333333    0.3330457450 Ga
   0.8666666667    0.3333333333    0.6663790783 Ga
   0.8666666667    0.3333333333    0.9997124116 Ga
   0.8666666667    0.5333333333    0.3330457450 Ga
   0.8666666667    0.5333333333    0.6663790783 Ga
   0.8666666667    0.5333333333    0.9997124116 Ga
   0.8666666667    0.7333333333    0.3330457450 Ga
   0.8666666667    0.7333333333    0.6663790783 Ga
   0.8666666667    0.7333333333    0.9997124116 Ga
   0.8666666667    0.9333333333    0.3330457450 Ga
   0.8666666667    0.9333333333    0.6663790783 Ga
   0.8764301386    0.9333802208    0.9996143328 Ga
   0.1341047528    0.0727411505    0.1643505372 Ga
   0.1333333333    0.0666666667    0.4997124116 Ga
   0.1333333333    0.0666666667    0.8330457450 Ga
   0.1333333333    0.2666666667    0.1663790783 Ga
   0.1333333333    0.2666666667    0.4997124116 Ga
   0.1333333333    0.2666666667    0.8330457450 Ga
   0.1333333333    0.4666666667    0.1663790783 Ga
   0.1333333333    0.4666666667    0.4997124116 Ga
   0.1333333333    0.4666666667    0.8330457450 Ga
   0.1333333333    0.6666666667    0.1663790783 Ga
   0.1333333333    0.6666666667    0.4997124116 Ga
   0.1333333333    0.6666666667    0.8330457450 Ga
   0.1333333333    0.8666666667    0.1663790783 Ga
   0.1333333333    0.8666666667    0.4997124116 Ga
   0.1333333333    0.8666666667    0.8330457450 Ga
   0.3333333333    0.0666666667    0.1663790783 Ga
   0.3333333333    0.0666666667    0.4997124116 Ga
   0.3333333333    0.0666666667    0.8330457450 Ga
   0.3333333333    0.2666666667    0.1663790783 Ga
   0.3333333333    0.2666666667    0.4997124116 Ga
   0.3333333333    0.2666666667    0.8330457450 Ga
   0.3333333333    0.4666666667    0.1663790783 Ga
   0.3333333333    0.4666666667    0.4997124116 Ga
   0.3333333333    0.4666666667    0.8330457450 Ga
   0.3333333333    0.6666666667    0.1663790783 Ga
   0.3333333333    0.6666666667    0.4997124116 Ga
   0.3333333333    0.6666666667    0.8330457450 Ga
   0.3333333333    0.8666666667    0.1663790783 Ga
   0.3333333333    0.8666666667    0.4997124116 Ga
   0.3333333333    0.8666666667    0.8330457450 Ga
   0.5333333333    0.0666666667    0.1663790783 Ga
   0.5333333333    0.0666666667    0.4997124116 Ga
   0.5333333333    0.0666666667    0.8330457450 Ga
   0.5333333333    0.2666666667    0.1663790783 Ga
   0.5333333333    0.2666666667    0.4997124116 Ga
   0.5333333333    0.2666666667    0.8330457450 Ga
   0.5333333333    0.4666666667    0.1663790783 Ga
   0.5333333333    0.4666666667    0.4997124116 Ga
   0.5333333333    0.4666666667    0.8330457450 Ga
   0.5333333333    0.6666666667    0.1663790783 Ga
   0.5333333333    0.6666666667    0.4997124116 Ga
   0.5333333333    0.6666666667    0.8330457450 Ga
   0.5333333333    0.8666666667    0.1663790783 Ga
   0.5333333333    0.8666666667    0.4997124116 Ga
   0.5333333333    0.8666666667    0.8330457450 Ga
   0.7333333333    0.0666666667    0.1663790783 Ga
   0.7333333333    0.0666666667    0.4997124116 Ga
   0.7333333333    0.0666666667    0.8330457450 Ga
   0.7333333333    0.2666666667    0.1663790783 Ga
   0.7333333333    0.2666666667    0.4997124116 Ga
   0.7333333333    0.2666666667    0.8330457450 Ga
   0.7333333333    0.4666666667    0.1663790783 Ga
   0.7333333333    0.4666666667    0.4997124116 Ga
   0.7333333333    0.4666666667    0.8330457450 Ga
   0.7333333333    0.6666666667    0.1663790783 Ga
   0.7333333333    0.6666666667    0.4997124116 Ga
   0.7333333333    0.6666666667    0.8330457450 Ga
   0.7333333333    0.8666666667    0.1663790783 Ga
   0.7333333333    0.8666666667    0.4997124116 Ga
   0.7333333333    0.8666666667    0.8330457450 Ga
   0.9372081136    0.0761830126    0.1605613576 Ga
   0.9333333333    0.0666666667    0.4997124116 Ga
   0.9333333333    0.0666666667    0.8330457450 Ga
   0.9333333333    0.2666666667    0.1663790783 Ga
   0.9333333333    0.2666666667    0.4997124116 Ga
   0.9333333333    0.2666666667    0.8330457450 Ga
   0.9333333333    0.4666666667    0.1663790783 Ga
   0.9333333333    0.4666666667    0.4997124116 Ga
   0.9333333333    0.4666666667    0.8330457450 Ga
   0.9333333333    0.6666666667    0.1663790783 Ga
   0.9333333333    0.6666666667    0.4997124116 Ga
   0.9333333333    0.6666666667    0.8330457450 Ga
   0.9326886832    0.8666051246    0.1667908048 Ga
   0.9333333333    0.8666666667    0.4997124116 Ga
   0.9333333333    0.8666666667    0.8330457450 Ga
   0.0631916205    0.1273148871    0.1281535020 N
   0.0666666667    0.1333333333    0.4586209217 N
   0.0666666667    0.1333333333    0.7919542550 N
   0.0666666667    0.3333333333    0.1252875884 N
   0.0666666667    0.3333333333    0.4586209217 N
   0.0666666667    0.3333333333    0.7919542550 N
   0.0666666667    0.5333333333    0.1252875884 N
   0.0666666667    0.5333333333    0.4586209217 N
   0.0666666667    0.5333333333    0.7919542550 N
   0.0666666667    0.7333333333    0.1252875884 N
   0.0666666667    0.7333333333    0.4586209217 N
   0.0666666667    0.7333333333    0.7919542550 N
   0.0668395342    0.9320202384    0.1184966627 N
   0.0666666667    0.9333333333    0.4586209217 N
   0.0666666667    0.9333333333    0.7919542550 N
   0.2666666667    0.1333333333    0.1252875884 N
   0.2666666667    0.1333333333    0.4586209217 N
   0.2666666667    0.1333333333    0.7919542550 N
   0.2666666667    0.3333333333    0.1252875884 N
   0.2666666667    0.3333333333    0.4586209217 N
   0.2666666667    0.3333333333    0.7919542550 N
   0.2666666667    0.5333333333    0.1252875884 N
   0.2666666667    0.5333333333    0.4586209217 N
   0.2666666667    0.5333333333    0.7919542550 N
   0.2666666667    0.7333333333    0.1252875884 N
   0.2666666667    0.7333333333    0.4586209217 N
   0.2666666667    0.7333333333    0.7919542550 N
   0.2666666667    0.9333333333    0.1252875884 N
   0.2666666667    0.9333333333    0.4586209217 N
   0.2666666667    0.9333333333    0.7919542550 N
   0.4666666667    0.1333333333    0.1252875884 N
   0.4666666667    0.1333333333    0.4586209217 N
   0.4666666667    0.1333333333    0.7919542550 N
   0.4666666667    0.3333333333    0.1252875884 N
   0.4666666667    0.3333333333    0.4586209217 N
   0.4666666667    0.3333333333    0.7919542550 N
   0.4666666667    0.5333333333    0.1252875884 N
   0.4666666667    0.5333333333    0.4586209217 N
   0.4666666667    0.5333333333    0.7919542550 N
   0.4666666667    0.7333333333    0.1252875884 N
   0.4666666667    0.7333333333    0.4586209217 N
   0.4666666667    0.7333333333    0.7919542550 N
   0.4666666667    0.9333333333    0.1252875884 N
   0.4666666667    0.9333333333    0.4586209217 N
   0.4666666667    0.9333333333    0.7919542550 N
   0.6666666667    0.1333333333    0.1252875884 N
   0.6666666667    0.1333333333    0.4586209217 N
   0.6666666667    0.1333333333    0.7919542550 N
   0.6666666667    0.3333333333    0.1252875884 N
   0.6666666667    0.3333333333    0.4586209217 N
   0.6666666667    0.3333333333    0.7919542550 N
   0.6666666667    0.5333333333    0.1252875884 N
   0.6666666667    0.5333333333    0.4586209217 N
   0.6666666667    0.5333333333    0.7919542550 N
   0.6666666667    0.7333333333    0.1252875884 N
   0.6666666667    0.7333333333    0.4586209217 N
   0.6666666667    0.7333333333    0.7919542550 N
   0.6666666667    0.9333333333    0.1252875884 N
   0.6666666667    0.9333333333    0.4586209217 N
   0.6666666667    0.9333333333    0.7919542550 N
   0.8666666667    0.1333333333    0.1252875884 N
   0.8666666667    0.1333333333    0.4586209217 N
   0.8666666667    0.1333333333    0.7919542550 N
   0.8666666667    0.3333333333    0.1252875884 N
   0.8666666667    0.3333333333    0.4586209217 N
   0.8666666667    0.3333333333    0.7919542550 N
   0.8666666667    0.5333333333    0.1252875884 N
   0.8666666667    0.5333333333    0.4586209217 N
   0.8666666667    0.5333333333    0.7919542550 N
   0.8666666667    0.7333333333    0.1252875884 N
   0.8666666667    0.7333333333    0.4586209217 N
   0.8666666667    0.7333333333    0.7919542550 N
   0.8633011593    0.9378079395    0.1187277292 N
   0.8666666667    0.9333333333    0.4586209217 N
   0.8666666667    0.9333333333    0.7919542550 N
   0.1333333333    0.0666666667    0.2919542550 N
   0.1333333333    0.0666666667    0.6252875884 N
   0.1318158030    0.0657371091    0.9562587988 N
   0.1333333333    0.2666666667    0.2919542550 N
   0.1333333333    0.2666666667    0.6252875884 N
   0.1333333333    0.2666666667    0.9586209217 N
   0.1333333333    0.4666666667    0.2919542550 N
   0.1333333333    0.4666666667    0.6252875884 N
   0.1333333333    0.4666666667    0.9586209217 N
   0.1333333333    0.6666666667    0.2919542550 N
   0.1333333333    0.6666666667    0.6252875884 N
   0.1333333333    0.6666666667    0.9586209217 N
   0.1333333333    0.8666666667    0.2919542550 N
   0.1333333333    0.8666666667    0.6252875884 N
   0.1333333333    0.8666666667    0.9586209217 N
   0.3333333333    0.0666666667    0.2919542550 N
   0.3333333333    0.0666666667    0.6252875884 N
   0.3333333333    0.0666666667    0.9586209217 N
   0.3333333333    0.2666666667    0.2919542550 N
   0.3333333333    0.2666666667    0.6252875884 N
   0.3333333333    0.2666666667    0.9586209217 N
   0.3333333333    0.4666666667    0.2919542550 N
   0.3333333333    0.4666666667    0.6252875884 N
   0.3333333333    0.4666666667    0.9586209217 N
   0.3333333333    0.6666666667    0.2919542550 N
   0.3333333333    0.6666666667    0.6252875884 N
   0.3333333333    0.6666666667    0.9586209217 N
   0.3333333333    0.8666666667    0.2919542550 N
   0.3333333333    0.8666666667    0.6252875884 N
   0.3333333333    0.8666666667    0.9586209217 N
   0.5333333333    0.0666666667    0.2919542550 N
   0.5333333333    0.0666666667    0.6252875884 N
   0.5333333333    0.0666666667    0.9586209217 N
   0.5333333333    0.2666666667    0.2919542550 N
   0.5333333333    0.2666666667    0.6252875884 N
   0.5333333333    0.2666666667    0.9586209217 N
   0.5333333333    0.4666666667    0.2919542550 N
   0.5333333333    0.4666666667    0.6252875884 N
   0.5333333333    0.4666666667    0.9586209217 N
   0.5333333333    0.6666666667    0.2919542550 N
   0.5333333333    0.6666666667    0.6252875884 N
   0.5333333333    0.6666666667    0.9586209217 N
   0.5333333333    0.8666666667    0.2919542550 N
   0.5333333333    0.8666666667    0.6252875884 N
   0.5333333333    0.8666666667    0.9586209217 N
   0.7333333333    0.0666666667    0.2919542550 N
   0.7333333333    0.0666666667    0.6252875884 N
   0.7333333333    0.0666666667    0.9586209217 N
   0.7333333333    0.2666666667    0.2919542550 N
   0.7333333333    0.2666666667    0.6252875884 N
   0.7333333333    0.2666666667    0.9586209217 N
   0.7333333333    0.4666666667    0.2919542550 N
   0.7333333333    0.4666666667    0.6252875884 N
   0.7333333333    0.4666666667    0.9586209217 N
   0.7333333333    0.6666666667    0.2919542550 N
   0.7333333333    0.6666666667    0.6252875884 N
   0.7333333333    0.6666666667    0.9586209217 N
   0.7333333333    0.8666666667    0.2919542550 N
   0.7333333333    0.8666666667    0.6252875884 N
   0.7333333333    0.8666666667    0.9586209217 N
   0.9333333333    0.0666666667    0.2919542550 N
   0.9333333333    0.0666666667    0.6252875884 N
   0.9337963355    0.0679428028    0.9590419919 N
   0.9333333333    0.2666666667    0.2919542550 N
   0.9333333333    0.2666666667    0.6252875884 N
   0.9333333333    0.2666666667    0.9586209217 N
   0.9333333333    0.4666666667    0.2919542550 N
   0.9333333333    0.4666666667    0.6252875884 N
   0.9333333333    0.4666666667    0.9586209217 N
   0.9333333333    0.6666666667    0.2919542550 N
   0.9333333333    0.6666666667    0.6252875884 N
   0.9333333333    0.6666666667    0.9586209217 N
   0.9333333333    0.8666666667    0.2919542550 N
   0.9333333333    0.8666666667    0.6252875884 N
   0.9317708127    0.8615270784    0.9659870381 N
