Ga150 N150
1.0
  15.9846091685682801    0.0000000000000000    0.0000000000000000
  -7.9923045842841400   13.8430776095457837    0.0000000000000000
   0.0000000000000000    0.0000000000000000   15.6155081910000000
Ga N
150 150
direct
   0.0666666666666667    0.1333333333333334    0.3330457449666658 Ga
   0.0666666666666667    0.1333333333333334    0.6663790782999991 Ga
   0.0666666666666667    0.1333333333333334    0.9997124116333325 Ga
   0.0666666666666667    0.3333333333333334    0.3330457449666658 Ga
   0.0666666666666667    0.3333333333333334    0.6663790782999991 Ga
   0.0666666666666667    0.3333333333333334    0.9997124116333325 Ga
   0.0666666666666666    0.5333333333333333    0.3330457449666658 Ga
   0.0666666666666666    0.5333333333333333    0.6663790782999991 Ga
   0.0666666666666666    0.5333333333333333    0.9997124116333325 Ga
   0.0666666666666666    0.7333333333333334    0.3330457449666658 Ga
   0.0666666666666666    0.7333333333333334    0.6663790782999991 Ga
   0.0666666666666666    0.7333333333333334    0.9997124116333325 Ga
   0.0666666666666666    0.9333333333333333    0.3330457449666658 Ga
   0.0666666666666666    0.9333333333333333    0.6663790782999991 Ga
   0.0666666666666666    0.9333333333333333    0.9997124116333325 Ga
   0.2666666666666667    0.1333333333333334    0.3330457449666658 Ga
   0.2666666666666667    0.1333333333333334    0.6663790782999991 Ga
   0.2666666666666667    0.1333333333333334    0.9997124116333325 Ga
   0.2666666666666667    0.3333333333333334    0.3330457449666658 Ga
   0.2666666666666667    0.3333333333333334    0.6663790782999991 Ga
   0.2666666666666667    0.3333333333333334    0.9997124116333325 Ga
   0.2666666666666666    0.5333333333333333    0.3330457449666658 Ga
   0.2666666666666666    0.5333333333333333    0.6663790782999991 Ga
   0.2666666666666666    0.5333333333333333    0.9997124116333325 Ga
   0.2666666666666666    0.7333333333333334    0.3330457449666658 Ga
   0.2666666666666666    0.7333333333333334    0.6663790782999991 Ga
   0.2666666666666666    0.7333333333333334    0.9997124116333325 Ga
   0.2666666666666666    0.9333333333333333    0.3330457449666658 Ga
   0.2666666666666666    0.9333333333333333    0.6663790782999991 Ga
   0.2666666666666666    0.9333333333333333    0.9997124116333325 Ga
   0.4666666666666666    0.1333333333333334    0.3330457449666658 Ga
   0.4666666666666666    0.1333333333333334    0.6663790782999991 Ga
   0.4666666666666666    0.1333333333333334    0.9997124116333325 Ga
   0.4666666666666666    0.3333333333333334    0.3330457449666658 Ga
   0.4666666666666666    0.3333333333333334    0.6663790782999991 Ga
   0.4666666666666666    0.3333333333333334    0.9997124116333325 Ga
   0.4666666666666666    0.5333333333333333    0.3330457449666658 Ga
   0.4666666666666666    0.5333333333333333    0.6663790782999991 Ga
   0.4666666666666666    0.5333333333333333    0.9997124116333325 Ga
   0.4666666666666666    0.7333333333333334    0.3330457449666658 Ga
   0.4666666666666666    0.7333333333333334    0.6663790782999991 Ga
   0.4666666666666666    0.7333333333333334    0.9997124116333325 Ga
   0.4666666666666666    0.9333333333333333    0.3330457449666658 Ga
   0.4666666666666666    0.9333333333333333    0.6663790782999991 Ga
   0.4666666666666666    0.9333333333333333    0.9997124116333325 Ga
   0.6666666666666667    0.1333333333333334    0.3330457449666658 Ga
   0.6666666666666667    0.1333333333333334    0.6663790782999991 Ga
   0.6666666666666667    0.1333333333333334    0.9997124116333325 Ga
   0.6666666666666667    0.3333333333333334    0.3330457449666658 Ga
   0.6666666666666667    0.3333333333333334    0.6663790782999991 Ga
   0.6666666666666667    0.3333333333333334    0.9997124116333325 Ga
   0.6666666666666667    0.5333333333333333    0.3330457449666658 Ga
   0.6666666666666667    0.5333333333333333    0.6663790782999991 Ga
   0.6666666666666667    0.5333333333333333    0.9997124116333325 Ga
   0.6666666666666666    0.7333333333333334    0.3330457449666658 Ga
   0.6666666666666666    0.7333333333333334    0.6663790782999991 Ga
   0.6666666666666666    0.7333333333333334    0.9997124116333325 Ga
   0.6666666666666666    0.9333333333333333    0.3330457449666658 Ga
   0.6666666666666666    0.9333333333333333    0.6663790782999991 Ga
   0.6666666666666666    0.9333333333333333    0.9997124116333325 Ga
   0.8666666666666666    0.1333333333333334    0.3330457449666658 Ga
   0.8666666666666666    0.1333333333333334    0.6663790782999991 Ga
   0.8666666666666666    0.1333333333333334    0.9997124116333325 Ga
   0.8666666666666666    0.3333333333333334    0.3330457449666658 Ga
   0.8666666666666666    0.3333333333333334    0.6663790782999991 Ga
   0.8666666666666666    0.3333333333333334    0.9997124116333325 Ga
   0.8666666666666666    0.5333333333333333    0.3330457449666658 Ga
   0.8666666666666666    0.5333333333333333    0.6663790782999991 Ga
   0.8666666666666666    0.5333333333333333    0.9997124116333325 Ga
   0.8666666666666665    0.7333333333333334    0.3330457449666658 Ga
   0.8666666666666665    0.7333333333333334    0.6663790782999991 Ga
   0.8666666666666665    0.7333333333333334    0.9997124116333325 Ga
   0.8666666666666666    0.9333333333333333    0.3330457449666658 Ga
   0.8666666666666666    0.9333333333333333    0.6663790782999991 Ga
   0.8666666666666666    0.9333333333333333    0.9997124116333325 Ga
   0.1333333333333334    0.0666666666666667    0.1663790782999991 Ga
   0.1333333333333334    0.0666666666666667    0.4997124116333324 Ga
   0.1333333333333334    0.0666666666666667    0.8330457449666658 Ga
   0.1333333333333333    0.2666666666666667    0.1663790782999991 Ga
   0.1333333333333333    0.2666666666666667    0.4997124116333324 Ga
   0.1333333333333333    0.2666666666666667    0.8330457449666658 Ga
   0.1333333333333333    0.4666666666666667    0.1663790782999991 Ga
   0.1333333333333333    0.4666666666666667    0.4997124116333324 Ga
   0.1333333333333333    0.4666666666666667    0.8330457449666658 Ga
   0.1333333333333333    0.6666666666666667    0.1663790782999991 Ga
   0.1333333333333333    0.6666666666666667    0.4997124116333324 Ga
   0.1333333333333333    0.6666666666666667    0.8330457449666658 Ga
   0.1333333333333333    0.8666666666666667    0.1663790782999991 Ga
   0.1333333333333333    0.8666666666666667    0.4997124116333324 Ga
   0.1333333333333333    0.8666666666666667    0.8330457449666658 Ga
   0.3333333333333333    0.0666666666666667    0.1663790782999991 Ga
   0.3333333333333333    0.0666666666666667    0.4997124116333324 Ga
   0.3333333333333333    0.0666666666666667    0.8330457449666658 Ga
   0.3333333333333333    0.2666666666666667    0.1663790782999991 Ga
   0.3333333333333333    0.2666666666666667    0.4997124116333324 Ga
   0.3333333333333333    0.2666666666666667    0.8330457449666658 Ga
   0.3333333333333333    0.4666666666666667    0.1663790782999991 Ga
   0.3333333333333333    0.4666666666666667    0.4997124116333324 Ga
   0.3333333333333333    0.4666666666666667    0.8330457449666658 Ga
   0.3333333333333333    0.6666666666666667    0.1663790782999991 Ga
   0.3333333333333333    0.6666666666666667    0.4997124116333324 Ga
   0.3333333333333333    0.6666666666666667    0.8330457449666658 Ga
   0.3333333333333333    0.8666666666666667    0.1663790782999991 Ga
   0.3333333333333333    0.8666666666666667    0.4997124116333324 Ga
   0.3333333333333333    0.8666666666666667    0.8330457449666658 Ga
   0.5333333333333333    0.0666666666666667    0.1663790782999991 Ga
   0.5333333333333333    0.0666666666666667    0.4997124116333324 Ga
   0.5333333333333333    0.0666666666666667    0.8330457449666658 Ga
   0.5333333333333333    0.2666666666666667    0.1663790782999991 Ga
   0.5333333333333333    0.2666666666666667    0.4997124116333324 Ga
   0.5333333333333333    0.2666666666666667    0.8330457449666658 Ga
   0.5333333333333333    0.4666666666666667    0.1663790782999991 Ga
   0.5333333333333333    0.4666666666666667    0.4997124116333324 Ga
   0.5333333333333333    0.4666666666666667    0.8330457449666658 Ga
   0.5333333333333333    0.6666666666666667    0.1663790782999991 Ga
   0.5333333333333333    0.6666666666666667    0.4997124116333324 Ga
   0.5333333333333333    0.6666666666666667    0.8330457449666658 Ga
   0.5333333333333332    0.8666666666666667    0.1663790782999991 Ga
   0.5333333333333332    0.8666666666666667    0.4997124116333324 Ga
   0.5333333333333332    0.8666666666666667    0.8330457449666658 Ga
   0.7333333333333334    0.0666666666666667    0.1663790782999991 Ga
   0.7333333333333334    0.0666666666666667    0.4997124116333324 Ga
   0.7333333333333334    0.0666666666666667    0.8330457449666658 Ga
   0.7333333333333334    0.2666666666666667    0.1663790782999991 Ga
   0.7333333333333334    0.2666666666666667    0.4997124116333324 Ga
   0.7333333333333334    0.2666666666666667    0.8330457449666658 Ga
   0.7333333333333334    0.4666666666666667    0.1663790782999991 Ga
   0.7333333333333334    0.4666666666666667    0.4997124116333324 Ga
   0.7333333333333334    0.4666666666666667    0.8330457449666658 Ga
   0.7333333333333334    0.6666666666666667    0.1663790782999991 Ga
   0.7333333333333334    0.6666666666666667    0.4997124116333324 Ga
   0.7333333333333334    0.6666666666666667    0.8330457449666658 Ga
   0.7333333333333334    0.8666666666666667    0.1663790782999991 Ga
   0.7333333333333334    0.8666666666666667    0.4997124116333324 Ga
   0.7333333333333334    0.8666666666666667    0.8330457449666658 Ga
   0.9333333333333332    0.0666666666666667    0.1663790782999991 Ga
   0.9333333333333332    0.0666666666666667    0.4997124116333324 Ga
   0.9333333333333332    0.0666666666666667    0.8330457449666658 Ga
   0.9333333333333332    0.2666666666666667    0.1663790782999991 Ga
   0.9333333333333332    0.2666666666666667    0.4997124116333324 Ga
   0.9333333333333332    0.2666666666666667    0.8330457449666658 Ga
   0.9333333333333332    0.4666666666666667    0.1663790782999991 Ga
   0.9333333333333332    0.4666666666666667    0.4997124116333324 Ga
   0.9333333333333332    0.4666666666666667    0.8330457449666658 Ga
   0.9333333333333332    0.6666666666666667    0.1663790782999991 Ga
   0.9333333333333332    0.6666666666666667    0.4997124116333324 Ga
   0.9333333333333332    0.6666666666666667    0.8330457449666658 Ga
   0.9333333333333332    0.8666666666666667    0.1663790782999991 Ga
   0.9333333333333332    0.8666666666666667    0.4997124116333324 Ga
   0.9333333333333332    0.8666666666666667    0.8330457449666658 Ga
   0.0666666666666667    0.1333333333333334    0.1252875883666675 N
   0.0666666666666667    0.1333333333333334    0.4586209217000008 N
   0.0666666666666667    0.1333333333333334    0.7919542550333342 N
   0.0666666666666667    0.3333333333333334    0.1252875883666675 N
   0.0666666666666667    0.3333333333333334    0.4586209217000008 N
   0.0666666666666667    0.3333333333333334    0.7919542550333342 N
   0.0666666666666666    0.5333333333333333    0.1252875883666675 N
   0.0666666666666666    0.5333333333333333    0.4586209217000008 N
   0.0666666666666666    0.5333333333333333    0.7919542550333342 N
   0.0666666666666666    0.7333333333333334    0.1252875883666675 N
   0.0666666666666666    0.7333333333333334    0.4586209217000008 N
   0.0666666666666666    0.7333333333333334    0.7919542550333342 N
   0.0666666666666666    0.9333333333333333    0.1252875883666675 N
   0.0666666666666666    0.9333333333333333    0.4586209217000008 N
   0.0666666666666666    0.9333333333333333    0.7919542550333342 N
   0.2666666666666667    0.1333333333333334    0.1252875883666675 N
   0.2666666666666667    0.1333333333333334    0.4586209217000008 N
   0.2666666666666667    0.1333333333333334    0.7919542550333342 N
   0.2666666666666667    0.3333333333333334    0.1252875883666675 N
   0.2666666666666667    0.3333333333333334    0.4586209217000008 N
   0.2666666666666667    0.3333333333333334    0.7919542550333342 N
   0.2666666666666666    0.5333333333333333    0.1252875883666675 N
   0.2666666666666666    0.5333333333333333    0.4586209217000008 N
   0.2666666666666666    0.5333333333333333    0.7919542550333342 N
   0.2666666666666666    0.7333333333333334    0.1252875883666675 N
   0.2666666666666666    0.7333333333333334    0.4586209217000008 N
   0.2666666666666666    0.7333333333333334    0.7919542550333342 N
   0.2666666666666666    0.9333333333333333    0.1252875883666675 N
   0.2666666666666666    0.9333333333333333    0.4586209217000008 N
   0.2666666666666666    0.9333333333333333    0.7919542550333342 N
   0.4666666666666666    0.1333333333333334    0.1252875883666675 N
   0.4666666666666666    0.1333333333333334    0.4586209217000008 N
   0.4666666666666666    0.1333333333333334    0.7919542550333342 N
   0.4666666666666666    0.3333333333333334    0.1252875883666675 N
   0.4666666666666666    0.3333333333333334    0.4586209217000008 N
   0.4666666666666666    0.3333333333333334    0.7919542550333342 N
   0.4666666666666666    0.5333333333333333    0.1252875883666675 N
   0.4666666666666666    0.5333333333333333    0.4586209217000008 N
   0.4666666666666666    0.5333333333333333    0.7919542550333342 N
   0.4666666666666666    0.7333333333333334    0.1252875883666675 N
   0.4666666666666666    0.7333333333333334    0.4586209217000008 N
   0.4666666666666666    0.7333333333333334    0.7919542550333342 N
   0.4666666666666666    0.9333333333333333    0.1252875883666675 N
   0.4666666666666666    0.9333333333333333    0.4586209217000008 N
   0.4666666666666666    0.9333333333333333    0.7919542550333342 N
   0.6666666666666667    0.1333333333333334    0.1252875883666675 N
   0.6666666666666667    0.1333333333333334    0.4586209217000008 N
   0.6666666666666667    0.1333333333333334    0.7919542550333342 N
   0.6666666666666667    0.3333333333333334    0.1252875883666675 N
   0.6666666666666667    0.3333333333333334    0.4586209217000008 N
   0.6666666666666667    0.3333333333333334    0.7919542550333342 N
   0.6666666666666667    0.5333333333333333    0.1252875883666675 N
   0.6666666666666667    0.5333333333333333    0.4586209217000008 N
   0.6666666666666667    0.5333333333333333    0.7919542550333342 N
   0.6666666666666666    0.7333333333333334    0.1252875883666675 N
   0.6666666666666666    0.7333333333333334    0.4586209217000008 N
   0.6666666666666666    0.7333333333333334    0.7919542550333342 N
   0.6666666666666666    0.9333333333333333    0.1252875883666675 N
   0.6666666666666666    0.9333333333333333    0.4586209217000008 N
   0.6666666666666666    0.9333333333333333    0.7919542550333342 N
   0.8666666666666666    0.1333333333333334    0.1252875883666675 N
   0.8666666666666666    0.1333333333333334    0.4586209217000008 N
   0.8666666666666666    0.1333333333333334    0.7919542550333342 N
   0.8666666666666666    0.3333333333333334    0.1252875883666675 N
   0.8666666666666666    0.3333333333333334    0.4586209217000008 N
   0.8666666666666666    0.3333333333333334    0.7919542550333342 N
   0.8666666666666666    0.5333333333333333    0.1252875883666675 N
   0.8666666666666666    0.5333333333333333    0.4586209217000008 N
   0.8666666666666666    0.5333333333333333    0.7919542550333342 N
   0.8666666666666665    0.7333333333333334    0.1252875883666675 N
   0.8666666666666665    0.7333333333333334    0.4586209217000008 N
   0.8666666666666665    0.7333333333333334    0.7919542550333342 N
   0.8666666666666666    0.9333333333333333    0.1252875883666675 N
   0.8666666666666666    0.9333333333333333    0.4586209217000008 N
   0.8666666666666666    0.9333333333333333    0.7919542550333342 N
   0.1333333333333334    0.0666666666666667    0.2919542550333342 N
   0.1333333333333334    0.0666666666666667    0.6252875883666675 N
   0.1333333333333334    0.0666666666666667    0.9586209217000009 N
   0.1333333333333333    0.2666666666666667    0.2919542550333342 N
   0.1333333333333333    0.2666666666666667    0.6252875883666675 N
   0.1333333333333333    0.2666666666666667    0.9586209217000009 N
   0.1333333333333333    0.4666666666666667    0.2919542550333342 N
   0.1333333333333333    0.4666666666666667    0.6252875883666675 N
   0.1333333333333333    0.4666666666666667    0.9586209217000009 N
   0.1333333333333333    0.6666666666666667    0.2919542550333342 N
   0.1333333333333333    0.6666666666666667    0.6252875883666675 N
   0.1333333333333333    0.6666666666666667    0.9586209217000009 N
   0.1333333333333333    0.8666666666666667    0.2919542550333342 N
   0.1333333333333333    0.8666666666666667    0.6252875883666675 N
   0.1333333333333333    0.8666666666666667    0.9586209217000009 N
   0.3333333333333333    0.0666666666666667    0.2919542550333342 N
   0.3333333333333333    0.0666666666666667    0.6252875883666675 N
   0.3333333333333333    0.0666666666666667    0.9586209217000009 N
   0.3333333333333333    0.2666666666666667    0.2919542550333342 N
   0.3333333333333333    0.2666666666666667    0.6252875883666675 N
   0.3333333333333333    0.2666666666666667    0.9586209217000009 N
   0.3333333333333333    0.4666666666666667    0.2919542550333342 N
   0.3333333333333333    0.4666666666666667    0.6252875883666675 N
   0.3333333333333333    0.4666666666666667    0.9586209217000009 N
   0.3333333333333333    0.6666666666666667    0.2919542550333342 N
   0.3333333333333333    0.6666666666666667    0.6252875883666675 N
   0.3333333333333333    0.6666666666666667    0.9586209217000009 N
   0.3333333333333333    0.8666666666666667    0.2919542550333342 N
   0.3333333333333333    0.8666666666666667    0.6252875883666675 N
   0.3333333333333333    0.8666666666666667    0.9586209217000009 N
   0.5333333333333333    0.0666666666666667    0.2919542550333342 N
   0.5333333333333333    0.0666666666666667    0.6252875883666675 N
   0.5333333333333333    0.0666666666666667    0.9586209217000009 N
   0.5333333333333333    0.2666666666666667    0.2919542550333342 N
   0.5333333333333333    0.2666666666666667    0.6252875883666675 N
   0.5333333333333333    0.2666666666666667    0.9586209217000009 N
   0.5333333333333333    0.4666666666666667    0.2919542550333342 N
   0.5333333333333333    0.4666666666666667    0.6252875883666675 N
   0.5333333333333333    0.4666666666666667    0.9586209217000009 N
   0.5333333333333333    0.6666666666666667    0.2919542550333342 N
   0.5333333333333333    0.6666666666666667    0.6252875883666675 N
   0.5333333333333333    0.6666666666666667    0.9586209217000009 N
   0.5333333333333332    0.8666666666666667    0.2919542550333342 N
   0.5333333333333332    0.8666666666666667    0.6252875883666675 N
   0.5333333333333332    0.8666666666666667    0.9586209217000009 N
   0.7333333333333334    0.0666666666666667    0.2919542550333342 N
   0.7333333333333334    0.0666666666666667    0.6252875883666675 N
   0.7333333333333334    0.0666666666666667    0.9586209217000009 N
   0.7333333333333334    0.2666666666666667    0.2919542550333342 N
   0.7333333333333334    0.2666666666666667    0.6252875883666675 N
   0.7333333333333334    0.2666666666666667    0.9586209217000009 N
   0.7333333333333334    0.4666666666666667    0.2919542550333342 N
   0.7333333333333334    0.4666666666666667    0.6252875883666675 N
   0.7333333333333334    0.4666666666666667    0.9586209217000009 N
   0.7333333333333334    0.6666666666666667    0.2919542550333342 N
   0.7333333333333334    0.6666666666666667    0.6252875883666675 N
   0.7333333333333334    0.6666666666666667    0.9586209217000009 N
   0.7333333333333334    0.8666666666666667    0.2919542550333342 N
   0.7333333333333334    0.8666666666666667    0.6252875883666675 N
   0.7333333333333334    0.8666666666666667    0.9586209217000009 N
   0.9333333333333332    0.0666666666666667    0.2919542550333342 N
   0.9333333333333332    0.0666666666666667    0.6252875883666675 N
   0.9333333333333332    0.0666666666666667    0.9586209217000009 N
   0.9333333333333332    0.2666666666666667    0.2919542550333342 N
   0.9333333333333332    0.2666666666666667    0.6252875883666675 N
   0.9333333333333332    0.2666666666666667    0.9586209217000009 N
   0.9333333333333332    0.4666666666666667    0.2919542550333342 N
   0.9333333333333332    0.4666666666666667    0.6252875883666675 N
   0.9333333333333332    0.4666666666666667    0.9586209217000009 N
   0.9333333333333332    0.6666666666666667    0.2919542550333342 N
   0.9333333333333332    0.6666666666666667    0.6252875883666675 N
   0.9333333333333332    0.6666666666666667    0.9586209217000009 N
   0.9333333333333332    0.8666666666666667    0.2919542550333342 N
   0.9333333333333332    0.8666666666666667    0.6252875883666675 N
   0.9333333333333332    0.8666666666666667    0.9586209217000009 N
