ALGO = Normal
EDIFF = 1e-05
ENCUT = 400.0
IBRION = 2
ISIF = 0
ISMEAR = 0
KPAR = 4
LASPH = True
LCHARG = False
LORBIT = 10
LREAL = False
LWAVE = False
NBANDS = 34
NELM = 100
NSW = 1
PREC = Normal
SIGMA = 0.1
