k-path added by seekpath. Formula: GaN SG: 186 
388
Reciprocal
 0.00000000000000000  0.00000000000000000  0.06250000000000000   2 None
 0.08333333333333333  0.00000000000000000  0.06250000000000000  12 None
 0.16666666666666666  0.00000000000000000  0.06250000000000000  12 None
 0.25000000000000000  0.00000000000000000  0.06250000000000000  12 None
 0.33333333333333331  0.00000000000000000  0.06250000000000000  12 None
 0.41666666666666669  0.00000000000000000  0.06250000000000000  12 None
 0.50000000000000000  0.00000000000000000  0.06250000000000000   6 None
 0.08333333333333333  0.08333333333333333  0.06250000000000000  12 None
 0.16666666666666666  0.08333333333333333  0.06250000000000000  24 None
 0.25000000000000000  0.08333333333333333  0.06250000000000000  24 None
 0.33333333333333331  0.08333333333333333  0.06250000000000000  24 None
 0.41666666666666669  0.08333333333333333  0.06250000000000000  24 None
 0.16666666666666666  0.16666666666666666  0.06250000000000000  12 None
 0.25000000000000000  0.16666666666666666  0.06250000000000000  24 None
 0.33333333333333331  0.16666666666666666  0.06250000000000000  24 None
 0.41666666666666669  0.16666666666666666  0.06250000000000000  12 None
 0.25000000000000000  0.25000000000000000  0.06250000000000000  12 None
 0.33333333333333331  0.25000000000000000  0.06250000000000000  24 None
 0.33333333333333331  0.33333333333333331  0.06250000000000000   4 None
 0.00000000000000000  0.00000000000000000  0.18750000000000000   2 None
 0.08333333333333333  0.00000000000000000  0.18750000000000000  12 None
 0.16666666666666666  0.00000000000000000  0.18750000000000000  12 None
 0.25000000000000000  0.00000000000000000  0.18750000000000000  12 None
 0.33333333333333331  0.00000000000000000  0.18750000000000000  12 None
 0.41666666666666669  0.00000000000000000  0.18750000000000000  12 None
 0.50000000000000000  0.00000000000000000  0.18750000000000000   6 None
 0.08333333333333333  0.08333333333333333  0.18750000000000000  12 None
 0.16666666666666666  0.08333333333333333  0.18750000000000000  24 None
 0.25000000000000000  0.08333333333333333  0.18750000000000000  24 None
 0.33333333333333331  0.08333333333333333  0.18750000000000000  24 None
 0.41666666666666669  0.08333333333333333  0.18750000000000000  24 None
 0.16666666666666666  0.16666666666666666  0.18750000000000000  12 None
 0.25000000000000000  0.16666666666666666  0.18750000000000000  24 None
 0.33333333333333331  0.16666666666666666  0.18750000000000000  24 None
 0.41666666666666669  0.16666666666666666  0.18750000000000000  12 None
 0.25000000000000000  0.25000000000000000  0.18750000000000000  12 None
 0.33333333333333331  0.25000000000000000  0.18750000000000000  24 None
 0.33333333333333331  0.33333333333333331  0.18750000000000000   4 None
 0.00000000000000000  0.00000000000000000  0.31250000000000000   2 None
 0.08333333333333333  0.00000000000000000  0.31250000000000000  12 None
 0.16666666666666666  0.00000000000000000  0.31250000000000000  12 None
 0.25000000000000000  0.00000000000000000  0.31250000000000000  12 None
 0.33333333333333331  0.00000000000000000  0.31250000000000000  12 None
 0.41666666666666669  0.00000000000000000  0.31250000000000000  12 None
 0.50000000000000000  0.00000000000000000  0.31250000000000000   6 None
 0.08333333333333333  0.08333333333333333  0.31250000000000000  12 None
 0.16666666666666666  0.08333333333333333  0.31250000000000000  24 None
 0.25000000000000000  0.08333333333333333  0.31250000000000000  24 None
 0.33333333333333331  0.08333333333333333  0.31250000000000000  24 None
 0.41666666666666669  0.08333333333333333  0.31250000000000000  24 None
 0.16666666666666666  0.16666666666666666  0.31250000000000000  12 None
 0.25000000000000000  0.16666666666666666  0.31250000000000000  24 None
 0.33333333333333331  0.16666666666666666  0.31250000000000000  24 None
 0.41666666666666669  0.16666666666666666  0.31250000000000000  12 None
 0.25000000000000000  0.25000000000000000  0.31250000000000000  12 None
 0.33333333333333331  0.25000000000000000  0.31250000000000000  24 None
 0.33333333333333331  0.33333333333333331  0.31250000000000000   4 None
 0.00000000000000000  0.00000000000000000  0.43750000000000000   2 None
 0.08333333333333333  0.00000000000000000  0.43750000000000000  12 None
 0.16666666666666666  0.00000000000000000  0.43750000000000000  12 None
 0.25000000000000000  0.00000000000000000  0.43750000000000000  12 None
 0.33333333333333331  0.00000000000000000  0.43750000000000000  12 None
 0.41666666666666669  0.00000000000000000  0.43750000000000000  12 None
 0.50000000000000000  0.00000000000000000  0.43750000000000000   6 None
 0.08333333333333333  0.08333333333333333  0.43750000000000000  12 None
 0.16666666666666666  0.08333333333333333  0.43750000000000000  24 None
 0.25000000000000000  0.08333333333333333  0.43750000000000000  24 None
 0.33333333333333331  0.08333333333333333  0.43750000000000000  24 None
 0.41666666666666669  0.08333333333333333  0.43750000000000000  24 None
 0.16666666666666666  0.16666666666666666  0.43750000000000000  12 None
 0.25000000000000000  0.16666666666666666  0.43750000000000000  24 None
 0.33333333333333331  0.16666666666666666  0.43750000000000000  24 None
 0.41666666666666669  0.16666666666666666  0.43750000000000000  12 None
 0.25000000000000000  0.25000000000000000  0.43750000000000000  12 None
 0.33333333333333331  0.25000000000000000  0.43750000000000000  24 None
 0.33333333333333331  0.33333333333333331  0.43750000000000000   4 None
 0.00000000000000000  0.00000000000000000  0.00000000000000000   0 GAMMA
 0.01136363636363636  0.00000000000000000  0.00000000000000000   0 
 0.02272727272727273  0.00000000000000000  0.00000000000000000   0 
 0.03409090909090909  0.00000000000000000  0.00000000000000000   0 
 0.04545454545454546  0.00000000000000000  0.00000000000000000   0 
 0.05681818181818182  0.00000000000000000  0.00000000000000000   0 
 0.06818181818181818  0.00000000000000000  0.00000000000000000   0 
 0.07954545454545454  0.00000000000000000  0.00000000000000000   0 
 0.09090909090909091  0.00000000000000000  0.00000000000000000   0 
 0.10227272727272728  0.00000000000000000  0.00000000000000000   0 
 0.11363636363636363  0.00000000000000000  0.00000000000000000   0 
 0.12500000000000000  0.00000000000000000  0.00000000000000000   0 
 0.13636363636363635  0.00000000000000000  0.00000000000000000   0 
 0.14772727272727273  0.00000000000000000  0.00000000000000000   0 
 0.15909090909090909  0.00000000000000000  0.00000000000000000   0 
 0.17045454545454544  0.00000000000000000  0.00000000000000000   0 
 0.18181818181818182  0.00000000000000000  0.00000000000000000   0 
 0.19318181818181818  0.00000000000000000  0.00000000000000000   0 
 0.20454545454545456  0.00000000000000000  0.00000000000000000   0 
 0.21590909090909091  0.00000000000000000  0.00000000000000000   0 
 0.22727272727272727  0.00000000000000000  0.00000000000000000   0 
 0.23863636363636365  0.00000000000000000  0.00000000000000000   0 
 0.25000000000000000  0.00000000000000000  0.00000000000000000   0 
 0.26136363636363635  0.00000000000000000  0.00000000000000000   0 
 0.27272727272727271  0.00000000000000000  0.00000000000000000   0 
 0.28409090909090912  0.00000000000000000  0.00000000000000000   0 
 0.29545454545454547  0.00000000000000000  0.00000000000000000   0 
 0.30681818181818182  0.00000000000000000  0.00000000000000000   0 
 0.31818181818181818  0.00000000000000000  0.00000000000000000   0 
 0.32954545454545453  0.00000000000000000  0.00000000000000000   0 
 0.34090909090909088  0.00000000000000000  0.00000000000000000   0 
 0.35227272727272729  0.00000000000000000  0.00000000000000000   0 
 0.36363636363636365  0.00000000000000000  0.00000000000000000   0 
 0.37500000000000000  0.00000000000000000  0.00000000000000000   0 
 0.38636363636363635  0.00000000000000000  0.00000000000000000   0 
 0.39772727272727271  0.00000000000000000  0.00000000000000000   0 
 0.40909090909090912  0.00000000000000000  0.00000000000000000   0 
 0.42045454545454547  0.00000000000000000  0.00000000000000000   0 
 0.43181818181818182  0.00000000000000000  0.00000000000000000   0 
 0.44318181818181818  0.00000000000000000  0.00000000000000000   0 
 0.45454545454545453  0.00000000000000000  0.00000000000000000   0 
 0.46590909090909088  0.00000000000000000  0.00000000000000000   0 
 0.47727272727272729  0.00000000000000000  0.00000000000000000   0 
 0.48863636363636365  0.00000000000000000  0.00000000000000000   0 
 0.50000000000000000  0.00000000000000000  0.00000000000000000   0 M
 0.49333333333333335  0.01333333333333333  0.00000000000000000   0 
 0.48666666666666669  0.02666666666666666  0.00000000000000000   0 
 0.47999999999999998  0.04000000000000000  0.00000000000000000   0 
 0.47333333333333333  0.05333333333333333  0.00000000000000000   0 
 0.46666666666666667  0.06666666666666667  0.00000000000000000   0 
 0.46000000000000002  0.08000000000000000  0.00000000000000000   0 
 0.45333333333333331  0.09333333333333332  0.00000000000000000   0 
 0.44666666666666666  0.10666666666666666  0.00000000000000000   0 
 0.44000000000000000  0.12000000000000000  0.00000000000000000   0 
 0.43333333333333335  0.13333333333333333  0.00000000000000000   0 
 0.42666666666666664  0.14666666666666667  0.00000000000000000   0 
 0.41999999999999998  0.16000000000000000  0.00000000000000000   0 
 0.41333333333333333  0.17333333333333331  0.00000000000000000   0 
 0.40666666666666668  0.18666666666666665  0.00000000000000000   0 
 0.39999999999999997  0.20000000000000001  0.00000000000000000   0 
 0.39333333333333331  0.21333333333333332  0.00000000000000000   0 
 0.38666666666666666  0.22666666666666666  0.00000000000000000   0 
 0.38000000000000000  0.23999999999999999  0.00000000000000000   0 
 0.37333333333333329  0.25333333333333330  0.00000000000000000   0 
 0.36666666666666664  0.26666666666666666  0.00000000000000000   0 
 0.35999999999999999  0.28000000000000003  0.00000000000000000   0 
 0.35333333333333333  0.29333333333333333  0.00000000000000000   0 
 0.34666666666666668  0.30666666666666664  0.00000000000000000   0 
 0.33999999999999997  0.32000000000000001  0.00000000000000000   0 
 0.33333333333333331  0.33333333333333326  0.00000000000000000   0 K
 0.32679738562091504  0.32679738562091504  0.00000000000000000   0 
 0.32026143790849670  0.32026143790849670  0.00000000000000000   0 
 0.31372549019607843  0.31372549019607843  0.00000000000000000   0 
 0.30718954248366009  0.30718954248366009  0.00000000000000000   0 
 0.30065359477124182  0.30065359477124182  0.00000000000000000   0 
 0.29411764705882348  0.29411764705882348  0.00000000000000000   0 
 0.28758169934640521  0.28758169934640521  0.00000000000000000   0 
 0.28104575163398693  0.28104575163398693  0.00000000000000000   0 
 0.27450980392156860  0.27450980392156860  0.00000000000000000   0 
 0.26797385620915032  0.26797385620915032  0.00000000000000000   0 
 0.26143790849673199  0.26143790849673199  0.00000000000000000   0 
 0.25490196078431371  0.25490196078431371  0.00000000000000000   0 
 0.24836601307189543  0.24836601307189543  0.00000000000000000   0 
 0.24183006535947710  0.24183006535947710  0.00000000000000000   0 
 0.23529411764705882  0.23529411764705882  0.00000000000000000   0 
 0.22875816993464052  0.22875816993464052  0.00000000000000000   0 
 0.22222222222222221  0.22222222222222221  0.00000000000000000   0 
 0.21568627450980390  0.21568627450980390  0.00000000000000000   0 
 0.20915032679738560  0.20915032679738560  0.00000000000000000   0 
 0.20261437908496732  0.20261437908496732  0.00000000000000000   0 
 0.19607843137254899  0.19607843137254899  0.00000000000000000   0 
 0.18954248366013071  0.18954248366013071  0.00000000000000000   0 
 0.18300653594771241  0.18300653594771241  0.00000000000000000   0 
 0.17647058823529410  0.17647058823529410  0.00000000000000000   0 
 0.16993464052287582  0.16993464052287582  0.00000000000000000   0 
 0.16339869281045752  0.16339869281045752  0.00000000000000000   0 
 0.15686274509803919  0.15686274509803919  0.00000000000000000   0 
 0.15032679738562091  0.15032679738562091  0.00000000000000000   0 
 0.14379084967320260  0.14379084967320260  0.00000000000000000   0 
 0.13725490196078430  0.13725490196078430  0.00000000000000000   0 
 0.13071895424836602  0.13071895424836602  0.00000000000000000   0 
 0.12418300653594772  0.12418300653594772  0.00000000000000000   0 
 0.11764705882352938  0.11764705882352938  0.00000000000000000   0 
 0.11111111111111110  0.11111111111111110  0.00000000000000000   0 
 0.10457516339869280  0.10457516339869280  0.00000000000000000   0 
 0.09803921568627449  0.09803921568627449  0.00000000000000000   0 
 0.09150326797385622  0.09150326797385622  0.00000000000000000   0 
 0.08496732026143791  0.08496732026143791  0.00000000000000000   0 
 0.07843137254901961  0.07843137254901961  0.00000000000000000   0 
 0.07189542483660133  0.07189542483660133  0.00000000000000000   0 
 0.06535947712418300  0.06535947712418300  0.00000000000000000   0 
 0.05882352941176466  0.05882352941176466  0.00000000000000000   0 
 0.05228758169934639  0.05228758169934639  0.00000000000000000   0 
 0.04575163398692811  0.04575163398692811  0.00000000000000000   0 
 0.03921568627450978  0.03921568627450978  0.00000000000000000   0 
 0.03267973856209150  0.03267973856209150  0.00000000000000000   0 
 0.02614379084967322  0.02614379084967322  0.00000000000000000   0 
 0.01960784313725489  0.01960784313725489  0.00000000000000000   0 
 0.01307189542483661  0.01307189542483661  0.00000000000000000   0 
 0.00653594771241833  0.00653594771241833  0.00000000000000000   0 
 0.00000000000000000  0.00000000000000000  0.00000000000000000   0 GAMMA
 0.00000000000000000  0.00000000000000000  0.02173913043478261   0 
 0.00000000000000000  0.00000000000000000  0.04347826086956522   0 
 0.00000000000000000  0.00000000000000000  0.06521739130434782   0 
 0.00000000000000000  0.00000000000000000  0.08695652173913043   0 
 0.00000000000000000  0.00000000000000000  0.10869565217391304   0 
 0.00000000000000000  0.00000000000000000  0.13043478260869565   0 
 0.00000000000000000  0.00000000000000000  0.15217391304347827   0 
 0.00000000000000000  0.00000000000000000  0.17391304347826086   0 
 0.00000000000000000  0.00000000000000000  0.19565217391304349   0 
 0.00000000000000000  0.00000000000000000  0.21739130434782608   0 
 0.00000000000000000  0.00000000000000000  0.23913043478260870   0 
 0.00000000000000000  0.00000000000000000  0.26086956521739130   0 
 0.00000000000000000  0.00000000000000000  0.28260869565217389   0 
 0.00000000000000000  0.00000000000000000  0.30434782608695654   0 
 0.00000000000000000  0.00000000000000000  0.32608695652173914   0 
 0.00000000000000000  0.00000000000000000  0.34782608695652173   0 
 0.00000000000000000  0.00000000000000000  0.36956521739130432   0 
 0.00000000000000000  0.00000000000000000  0.39130434782608697   0 
 0.00000000000000000  0.00000000000000000  0.41304347826086957   0 
 0.00000000000000000  0.00000000000000000  0.43478260869565216   0 
 0.00000000000000000  0.00000000000000000  0.45652173913043476   0 
 0.00000000000000000  0.00000000000000000  0.47826086956521741   0 
 0.00000000000000000  0.00000000000000000  0.50000000000000000   0 A
 0.01136363636363636  0.00000000000000000  0.50000000000000000   0 
 0.02272727272727273  0.00000000000000000  0.50000000000000000   0 
 0.03409090909090909  0.00000000000000000  0.50000000000000000   0 
 0.04545454545454546  0.00000000000000000  0.50000000000000000   0 
 0.05681818181818182  0.00000000000000000  0.50000000000000000   0 
 0.06818181818181818  0.00000000000000000  0.50000000000000000   0 
 0.07954545454545454  0.00000000000000000  0.50000000000000000   0 
 0.09090909090909091  0.00000000000000000  0.50000000000000000   0 
 0.10227272727272728  0.00000000000000000  0.50000000000000000   0 
 0.11363636363636363  0.00000000000000000  0.50000000000000000   0 
 0.12500000000000000  0.00000000000000000  0.50000000000000000   0 
 0.13636363636363635  0.00000000000000000  0.50000000000000000   0 
 0.14772727272727273  0.00000000000000000  0.50000000000000000   0 
 0.15909090909090909  0.00000000000000000  0.50000000000000000   0 
 0.17045454545454544  0.00000000000000000  0.50000000000000000   0 
 0.18181818181818182  0.00000000000000000  0.50000000000000000   0 
 0.19318181818181818  0.00000000000000000  0.50000000000000000   0 
 0.20454545454545456  0.00000000000000000  0.50000000000000000   0 
 0.21590909090909091  0.00000000000000000  0.50000000000000000   0 
 0.22727272727272727  0.00000000000000000  0.50000000000000000   0 
 0.23863636363636365  0.00000000000000000  0.50000000000000000   0 
 0.25000000000000000  0.00000000000000000  0.50000000000000000   0 
 0.26136363636363635  0.00000000000000000  0.50000000000000000   0 
 0.27272727272727271  0.00000000000000000  0.50000000000000000   0 
 0.28409090909090912  0.00000000000000000  0.50000000000000000   0 
 0.29545454545454547  0.00000000000000000  0.50000000000000000   0 
 0.30681818181818182  0.00000000000000000  0.50000000000000000   0 
 0.31818181818181818  0.00000000000000000  0.50000000000000000   0 
 0.32954545454545453  0.00000000000000000  0.50000000000000000   0 
 0.34090909090909088  0.00000000000000000  0.50000000000000000   0 
 0.35227272727272729  0.00000000000000000  0.50000000000000000   0 
 0.36363636363636365  0.00000000000000000  0.50000000000000000   0 
 0.37500000000000000  0.00000000000000000  0.50000000000000000   0 
 0.38636363636363635  0.00000000000000000  0.50000000000000000   0 
 0.39772727272727271  0.00000000000000000  0.50000000000000000   0 
 0.40909090909090912  0.00000000000000000  0.50000000000000000   0 
 0.42045454545454547  0.00000000000000000  0.50000000000000000   0 
 0.43181818181818182  0.00000000000000000  0.50000000000000000   0 
 0.44318181818181818  0.00000000000000000  0.50000000000000000   0 
 0.45454545454545453  0.00000000000000000  0.50000000000000000   0 
 0.46590909090909088  0.00000000000000000  0.50000000000000000   0 
 0.47727272727272729  0.00000000000000000  0.50000000000000000   0 
 0.48863636363636365  0.00000000000000000  0.50000000000000000   0 
 0.50000000000000000  0.00000000000000000  0.50000000000000000   0 L
 0.49333333333333335  0.01333333333333333  0.50000000000000000   0 
 0.48666666666666669  0.02666666666666666  0.50000000000000000   0 
 0.47999999999999998  0.04000000000000000  0.50000000000000000   0 
 0.47333333333333333  0.05333333333333333  0.50000000000000000   0 
 0.46666666666666667  0.06666666666666667  0.50000000000000000   0 
 0.46000000000000002  0.08000000000000000  0.50000000000000000   0 
 0.45333333333333331  0.09333333333333332  0.50000000000000000   0 
 0.44666666666666666  0.10666666666666666  0.50000000000000000   0 
 0.44000000000000000  0.12000000000000000  0.50000000000000000   0 
 0.43333333333333335  0.13333333333333333  0.50000000000000000   0 
 0.42666666666666664  0.14666666666666667  0.50000000000000000   0 
 0.41999999999999998  0.16000000000000000  0.50000000000000000   0 
 0.41333333333333333  0.17333333333333331  0.50000000000000000   0 
 0.40666666666666668  0.18666666666666665  0.50000000000000000   0 
 0.39999999999999997  0.20000000000000001  0.50000000000000000   0 
 0.39333333333333331  0.21333333333333332  0.50000000000000000   0 
 0.38666666666666666  0.22666666666666666  0.50000000000000000   0 
 0.38000000000000000  0.23999999999999999  0.50000000000000000   0 
 0.37333333333333329  0.25333333333333330  0.50000000000000000   0 
 0.36666666666666664  0.26666666666666666  0.50000000000000000   0 
 0.35999999999999999  0.28000000000000003  0.50000000000000000   0 
 0.35333333333333333  0.29333333333333333  0.50000000000000000   0 
 0.34666666666666668  0.30666666666666664  0.50000000000000000   0 
 0.33999999999999997  0.32000000000000001  0.50000000000000000   0 
 0.33333333333333331  0.33333333333333326  0.50000000000000000   0 H
 0.32679738562091504  0.32679738562091504  0.50000000000000000   0 
 0.32026143790849670  0.32026143790849670  0.50000000000000000   0 
 0.31372549019607843  0.31372549019607843  0.50000000000000000   0 
 0.30718954248366009  0.30718954248366009  0.50000000000000000   0 
 0.30065359477124182  0.30065359477124182  0.50000000000000000   0 
 0.29411764705882348  0.29411764705882348  0.50000000000000000   0 
 0.28758169934640521  0.28758169934640521  0.50000000000000000   0 
 0.28104575163398693  0.28104575163398693  0.50000000000000000   0 
 0.27450980392156860  0.27450980392156860  0.50000000000000000   0 
 0.26797385620915032  0.26797385620915032  0.50000000000000000   0 
 0.26143790849673199  0.26143790849673199  0.50000000000000000   0 
 0.25490196078431371  0.25490196078431371  0.50000000000000000   0 
 0.24836601307189543  0.24836601307189543  0.50000000000000000   0 
 0.24183006535947710  0.24183006535947710  0.50000000000000000   0 
 0.23529411764705882  0.23529411764705882  0.50000000000000000   0 
 0.22875816993464052  0.22875816993464052  0.50000000000000000   0 
 0.22222222222222221  0.22222222222222221  0.50000000000000000   0 
 0.21568627450980390  0.21568627450980390  0.50000000000000000   0 
 0.20915032679738560  0.20915032679738560  0.50000000000000000   0 
 0.20261437908496732  0.20261437908496732  0.50000000000000000   0 
 0.19607843137254899  0.19607843137254899  0.50000000000000000   0 
 0.18954248366013071  0.18954248366013071  0.50000000000000000   0 
 0.18300653594771241  0.18300653594771241  0.50000000000000000   0 
 0.17647058823529410  0.17647058823529410  0.50000000000000000   0 
 0.16993464052287582  0.16993464052287582  0.50000000000000000   0 
 0.16339869281045752  0.16339869281045752  0.50000000000000000   0 
 0.15686274509803919  0.15686274509803919  0.50000000000000000   0 
 0.15032679738562091  0.15032679738562091  0.50000000000000000   0 
 0.14379084967320260  0.14379084967320260  0.50000000000000000   0 
 0.13725490196078430  0.13725490196078430  0.50000000000000000   0 
 0.13071895424836602  0.13071895424836602  0.50000000000000000   0 
 0.12418300653594772  0.12418300653594772  0.50000000000000000   0 
 0.11764705882352938  0.11764705882352938  0.50000000000000000   0 
 0.11111111111111110  0.11111111111111110  0.50000000000000000   0 
 0.10457516339869280  0.10457516339869280  0.50000000000000000   0 
 0.09803921568627449  0.09803921568627449  0.50000000000000000   0 
 0.09150326797385622  0.09150326797385622  0.50000000000000000   0 
 0.08496732026143791  0.08496732026143791  0.50000000000000000   0 
 0.07843137254901961  0.07843137254901961  0.50000000000000000   0 
 0.07189542483660133  0.07189542483660133  0.50000000000000000   0 
 0.06535947712418300  0.06535947712418300  0.50000000000000000   0 
 0.05882352941176466  0.05882352941176466  0.50000000000000000   0 
 0.05228758169934639  0.05228758169934639  0.50000000000000000   0 
 0.04575163398692811  0.04575163398692811  0.50000000000000000   0 
 0.03921568627450978  0.03921568627450978  0.50000000000000000   0 
 0.03267973856209150  0.03267973856209150  0.50000000000000000   0 
 0.02614379084967322  0.02614379084967322  0.50000000000000000   0 
 0.01960784313725489  0.01960784313725489  0.50000000000000000   0 
 0.01307189542483661  0.01307189542483661  0.50000000000000000   0 
 0.00653594771241833  0.00653594771241833  0.50000000000000000   0 
 0.00000000000000000  0.00000000000000000  0.50000000000000000   0 A
 0.50000000000000000  0.00000000000000000  0.50000000000000000   0 L
 0.50000000000000000  0.00000000000000000  0.47826086956521741   0 
 0.50000000000000000  0.00000000000000000  0.45652173913043481   0 
 0.50000000000000000  0.00000000000000000  0.43478260869565216   0 
 0.50000000000000000  0.00000000000000000  0.41304347826086957   0 
 0.50000000000000000  0.00000000000000000  0.39130434782608697   0 
 0.50000000000000000  0.00000000000000000  0.36956521739130432   0 
 0.50000000000000000  0.00000000000000000  0.34782608695652173   0 
 0.50000000000000000  0.00000000000000000  0.32608695652173914   0 
 0.50000000000000000  0.00000000000000000  0.30434782608695654   0 
 0.50000000000000000  0.00000000000000000  0.28260869565217395   0 
 0.50000000000000000  0.00000000000000000  0.26086956521739130   0 
 0.50000000000000000  0.00000000000000000  0.23913043478260870   0 
 0.50000000000000000  0.00000000000000000  0.21739130434782611   0 
 0.50000000000000000  0.00000000000000000  0.19565217391304346   0 
 0.50000000000000000  0.00000000000000000  0.17391304347826086   0 
 0.50000000000000000  0.00000000000000000  0.15217391304347827   0 
 0.50000000000000000  0.00000000000000000  0.13043478260869568   0 
 0.50000000000000000  0.00000000000000000  0.10869565217391303   0 
 0.50000000000000000  0.00000000000000000  0.08695652173913043   0 
 0.50000000000000000  0.00000000000000000  0.06521739130434784   0 
 0.50000000000000000  0.00000000000000000  0.04347826086956524   0 
 0.50000000000000000  0.00000000000000000  0.02173913043478259   0 
 0.50000000000000000  0.00000000000000000  0.00000000000000000   0 M
 0.33333333333333331  0.33333333333333331  0.50000000000000000   0 H
 0.33333333333333331  0.33333333333333331  0.47826086956521741   0 
 0.33333333333333331  0.33333333333333331  0.45652173913043481   0 
 0.33333333333333331  0.33333333333333331  0.43478260869565216   0 
 0.33333333333333331  0.33333333333333331  0.41304347826086957   0 
 0.33333333333333331  0.33333333333333331  0.39130434782608697   0 
 0.33333333333333331  0.33333333333333331  0.36956521739130432   0 
 0.33333333333333331  0.33333333333333331  0.34782608695652173   0 
 0.33333333333333331  0.33333333333333331  0.32608695652173914   0 
 0.33333333333333331  0.33333333333333331  0.30434782608695654   0 
 0.33333333333333331  0.33333333333333331  0.28260869565217395   0 
 0.33333333333333331  0.33333333333333331  0.26086956521739130   0 
 0.33333333333333331  0.33333333333333331  0.23913043478260870   0 
 0.33333333333333331  0.33333333333333331  0.21739130434782611   0 
 0.33333333333333331  0.33333333333333331  0.19565217391304346   0 
 0.33333333333333331  0.33333333333333331  0.17391304347826086   0 
 0.33333333333333331  0.33333333333333331  0.15217391304347827   0 
 0.33333333333333331  0.33333333333333331  0.13043478260869568   0 
 0.33333333333333331  0.33333333333333331  0.10869565217391303   0 
 0.33333333333333331  0.33333333333333331  0.08695652173913043   0 
 0.33333333333333331  0.33333333333333331  0.06521739130434784   0 
 0.33333333333333331  0.33333333333333331  0.04347826086956524   0 
 0.33333333333333331  0.33333333333333331  0.02173913043478259   0 
 0.33333333333333331  0.33333333333333331  0.00000000000000000   0 K
