Ga N                                    
   1.00000000000000     
     3.2075065144011692    0.0000000000000000    0.0000000000000000
    -1.6037532572005846    2.7777821241882714   -0.0000000000000000
     0.0000000000000000   -0.0000000000000000    5.2236282274164365
   Ga   N 
     2     2
Direct
  0.3333333429999996  0.6666666870000029 -0.0008606855689334
  0.6666666269999979  0.3333333129999971  0.4991393144310666
  0.3333333429999996  0.6666666870000029  0.3758606855689334
  0.6666666269999979  0.3333333129999971  0.8758606855689335
 
  0.00000000E+00  0.00000000E+00  0.00000000E+00
  0.00000000E+00  0.00000000E+00  0.00000000E+00
  0.00000000E+00  0.00000000E+00  0.00000000E+00
  0.00000000E+00  0.00000000E+00  0.00000000E+00
