Ga4                                     
   1.00000000000000     
     2.3061418882273923   -3.8632934364679836   -0.0000000000000000
     2.3061418882273923    3.8632934364679836    0.0000000000000000
     0.0000000000000000   -0.0000000000000000    4.5332686473585415
   Ga
     4
Direct
  0.6558504560258034  0.3441495439741967  0.4161249050125561
  0.8441495439741966  0.1558504560258033  0.9161249050125561
  0.3441495439741967  0.6558504560258034  0.5838750949874439
  0.1558504560258033  0.8441495439741966  0.0838750949874440
 
  0.00000000E+00  0.00000000E+00  0.00000000E+00
  0.00000000E+00  0.00000000E+00  0.00000000E+00
  0.00000000E+00  0.00000000E+00  0.00000000E+00
  0.00000000E+00  0.00000000E+00  0.00000000E+00
