Ga4
1.0
   2.2160233304   -3.7989918401    0.0000000000
   2.2160233304    3.7989918401    0.0000000000
   0.0000000000    0.0000000000    4.5555035300
Ga
4
direct
   0.6556957200    0.3443042800    0.4154013900 Ga
   0.8443042800    0.1556957200    0.9154013900 Ga
   0.3443042800    0.6556957200    0.5845986100 Ga
   0.1556957200    0.8443042800    0.0845986100 Ga
