GaN # GaN system                        
   1.00000000000000     
     1.5603841173750730   -2.7026645706171446   -0.0000000000000000
     1.5603841173750728    2.7026645706171446   -0.0000000000000000
     0.0000000000000000    0.0000000000000000   10.2568522155654005
   Ga   N 
     4     4
Direct
  0.0000000000000000  0.0000000000000000  0.2824360716599920
  0.3333333333333357  0.6666666666666643  0.5263499212123206
  0.6666666666666643  0.3333333333333357  0.0263499212123206
  0.0000000000000000  0.0000000000000000  0.7824360716599923
  0.3333333333333357  0.6666666666666643  0.8570642719623733
 -0.0000000000000000  0.0000000000000000  0.5941497351653120
  0.6666666666666643  0.3333333333333357  0.3570642719623732
  0.0000000000000000  0.0000000000000000  0.0941497351653121
 
  0.00000000E+00  0.00000000E+00  0.00000000E+00
  0.00000000E+00  0.00000000E+00  0.00000000E+00
  0.00000000E+00  0.00000000E+00  0.00000000E+00
  0.00000000E+00  0.00000000E+00  0.00000000E+00
  0.00000000E+00  0.00000000E+00  0.00000000E+00
  0.00000000E+00  0.00000000E+00  0.00000000E+00
  0.00000000E+00  0.00000000E+00  0.00000000E+00
  0.00000000E+00  0.00000000E+00  0.00000000E+00
