N2
1.0
  10.0000000000    0.0000000000    0.0000000000
   0.0000000000   10.0000000000    0.0000000000
   0.0000000000    0.0000000000   10.0000000000
N
2
direct
   0.4448828045    0.0000000000    0.0000000000 N
   0.5551171955    0.0000000000    0.0000000000 N
